3
Properties=species:S:1:pos:R:3 REF_energy="_JSON [[1.0, 1.0, 1.0]]" REF_dipoles="_JSON [[0.6894917569126777, 1.526363051358423, -0.8393549335636316], [1.125693669906776, -1.2320336225221444, 0.994620866152168], [-0.05650033660606027, 0.7857815413079996, 0.5180150428296956]]" pbc="F F F"
H        0.65447512       1.12100646       1.37680455
O        1.97243434       0.47193968       1.17124301
H        0.06058390       1.73580232       0.78210295
3
Properties=species:S:1:pos:R:3 REF_energy="_JSON [[1.0, 1.0, 1.0]]" REF_dipoles="_JSON [[0.8193942554080396, -0.4192029217961565, 0.46002854352016226], [0.012794157039450539, 1.7722873079758346, 0.10055129163617163], [-1.026663836038559, 1.6817356833299977, 0.08881686134095779]]" pbc="F F F"
H        1.92935017       1.00412857       1.39545421
O        1.96410967       1.62103940       0.60578337
H        1.49130766       1.81660425       0.97966569
3
Properties=species:S:1:pos:R:3 REF_energy="_JSON [[1.0, 1.0, 1.0]]" REF_dipoles="_JSON [[0.11542060492548598, 0.762520125291867, 1.1718216564507626], [1.3409600321784672, 0.5042859926494104, -0.4937551119285323], [0.46924876607852556, 0.29606046748994275, -1.9445922830305697]]" pbc="F F F"
H        0.90814877       1.54599647       1.37060662
O        0.68664320       0.57485020       0.45935318
H        0.12703129       0.66145435       1.69066324
3
Properties=species:S:1:pos:R:3 REF_energy="_JSON [[1.0, 1.0, 1.0]]" REF_dipoles="_JSON [[-0.1769306793625787, 0.42976987131302646, 0.9210243216285607], [1.733725739023655, 0.6853646217265272, -0.9176902562763943], [0.6021849731741817, -1.7193503544005042, 0.9964777022936485]]" pbc="F F F"
H        0.51520060       0.74929767       0.96024100
O        0.72753454       1.83733435       1.38995575
H        1.10163538       1.10130369       0.78653757
3
Properties=species:S:1:pos:R:3 REF_energy="_JSON [[1.0, 1.0, 1.0]]" REF_dipoles="_JSON [[-0.5511373385334397, 0.11824136812114948, 0.15003396616203918], [1.7489164496512626, -2.173882421230698, 0.2241451165302285], [-1.0311341236408922, -1.0815569348245384, 0.7278176988440047]]" pbc="F F F"
H        1.53244602       1.09834820       0.05749790
O        0.15994705       1.00368325       1.25517816
H        0.09663986       0.80149940       0.52803774
3
Properties=species:S:1:pos:R:3 REF_energy="_JSON [[1.0, 1.0, 1.0]]" REF_dipoles="_JSON [[-0.13636677344255238, 0.47728559534604736, 1.6012035263300073], [-0.6487110413966035, -0.1335332164152141, -0.25306951980129516], [-0.12489146021898218, 0.13060960101103966, 0.15476080973682096]]" pbc="F F F"
H        0.25310948       1.51537296       1.65448972
O        0.79165347       1.89292669       1.30135363
H        0.66253818       1.66771621       0.05060955
3
Properties=species:S:1:pos:R:3 REF_energy="_JSON [[1.0, 1.0, 1.0]]" REF_dipoles="_JSON [[-0.8583944153793261, -0.6974377300389735, -2.0821297876581633], [0.48660241331797555, 0.855143766472271, -0.04863833362112018], [-0.5463181214367014, 0.20826787823912127, 0.0901833205464802]]" pbc="F F F"
H        0.94028622       0.13696820       1.66216298
O        0.77240103       0.31761788       0.46472702
H        1.19879838       0.20279350       1.54104170
3
Properties=species:S:1:pos:R:3 REF_energy="_JSON [[1.0, 1.0, 1.0]]" REF_dipoles="_JSON [[-0.3391318622881632, -1.0269140544527653, 0.44529343580233893], [0.8178962670574013, 0.869462848697666, -0.2313309413800573], [0.8342251013571381, 0.6680322615681437, 0.7779312452753583]]" pbc="F F F"
H        0.86219181       0.61446520       1.07101001
O        1.77868802       0.71047651       0.33742092
H        0.34833873       1.94247162       1.17535779
3
Properties=species:S:1:pos:R:3 REF_energy="_JSON [[1.0, 1.0, 1.0]]" REF_dipoles="_JSON [[2.438736820728578, 0.22128178297513348, -0.7753503141415491], [-1.0763222617311987, 0.3555691339427614, -0.14793725059184684], [0.8433173879733354, -0.3145228723577224, 1.1077310910642524]]" pbc="F F F"
H        1.35528606       1.67875934       1.80189485
O        1.64123274       1.13552594       0.86410932
H        0.52613529       0.22683332       0.70125027
3
Properties=species:S:1:pos:R:3 REF_energy="_JSON [[1.0, 1.0, 1.0]]" REF_dipoles="_JSON [[0.06692381111944425, 0.17821309089188894, -1.2793663674259497], [-0.6906183469326177, -0.16535763517915003, 0.6056398007210649], [-0.09129191221656767, 1.4278969622916367, -0.37737062255590775]]" pbc="F F F"
H        1.09764597       1.46111459       0.65392403
O        0.95356157       1.37232001       0.61360634
H        0.76216412       0.55949297       0.85924115
3
Properties=species:S:1:pos:R:3 REF_energy="_JSON [[1.0, 1.0, 1.0]]" REF_dipoles="_JSON [[-0.7652782025732466, 0.27577255924052174, -0.3893119681690777], [-0.013280077303335748, 1.029692652262524, -0.5836177550365435], [-0.6519785313502249, 2.0300942447646566, -0.3177842384494056]]" pbc="F F F"
H        0.16456565       0.19933640       0.20332961
O        0.42345315       1.10140536       0.67156255
H        1.56964737       1.47147349       0.09629324
3
Properties=species:S:1:pos:R:3 REF_energy="_JSON [[1.0, 1.0, 1.0]]" REF_dipoles="_JSON [[0.05294130510966035, 0.3216651988675494, -0.007102083483197152], [-1.3203767787931047, 0.05273386533505378, 0.2763668534359393], [0.3157762503152989, -1.9044147704548708, -0.48668417238766903]]" pbc="F F F"
H        1.26496512       0.84290198       1.49991547
O        0.19157112       1.79536540       0.21024057
H        0.92044812       0.39227844       0.68372603
3
Properties=species:S:1:pos:R:3 REF_energy="_JSON [[1.0, 1.0, 1.0]]" REF_dipoles="_JSON [[0.7056195008525683, 0.29296834641074676, 0.6267973991911582], [0.8287495714210791, -0.04137651000798566, 0.13855531404539756], [-1.2765201697074224, -0.9476807829557905, 0.32652146810646077]]" pbc="F F F"
H        0.94788752       0.17039081       1.80977666
O        1.79634618       1.75317636       0.36425289
H        1.51534129       0.07509399       0.03838236
3
Properties=species:S:1:pos:R:3 REF_energy="_JSON [[1.0, 1.0, 1.0]]" REF_dipoles="_JSON [[-1.9907882657224794, 0.19636836251289397, -0.7386829275919188], [1.1109523759982634, 0.749258151162579, 1.4171718798402717], [1.2233261083280758, -1.954040984712353, 1.2153132205113573]]" pbc="F F F"
H        0.73496910       0.39382695       1.68324252
O        1.74128835       0.45162838       1.43036400
H        0.15718585       1.87987097       0.76585503
3
Properties=species:S:1:pos:R:3 REF_energy="_JSON [[1.0, 1.0, 1.0]]" REF_dipoles="_JSON [[-0.6318400454484502, -1.7750808548199688, 1.917074965049166], [1.0361591086135356, 0.526489349622061, 0.329501146929913], [1.0705797053597752, -1.4853333509515867, -0.09468551752815152]]" pbc="F F F"
H        0.39453719       1.26960618       1.45562028
O        1.01344711       1.93217840       0.36599308
H        0.01906567       1.48206714       0.43204468
3
Properties=species:S:1:pos:R:3 REF_energy="_JSON [[1.0, 1.0, 1.0]]" REF_dipoles="_JSON [[0.47713240097712206, -0.15502062461415078, -0.020909551161409287], [0.24704907813945925, -0.049080674477237005, 0.33745560431378874], [0.2467483923209954, 0.4047815175861526, 1.9139661031190605]]" pbc="F F F"
H        0.30975431       1.47221549       1.97530449
O        1.74695090       0.30054399       1.93760665
H        1.31691350       1.73461799       1.75103053
3
Properties=species:S:1:pos:R:3 REF_energy="_JSON [[1.0, 1.0, 1.0]]" REF_dipoles="_JSON [[0.043873383256875016, 0.4452178413726214, -0.34597010733898265], [0.6958968175417242, 0.3381052224413501, -0.2019095344752096], [-0.6188508698586637, -1.165243975047063, 3.010337883122895]]" pbc="F F F"
H        0.86355457       1.13774400       1.05624760
O        1.29759186       1.53627811       1.92555579
H        0.89594043       1.79286239       0.04025787
3
Properties=species:S:1:pos:R:3 REF_energy="_JSON [[1.0, 1.0, 1.0]]" REF_dipoles="_JSON [[-0.3343977422081676, -0.21425543263195665, 0.9439414889541745], [0.07142102355795446, -0.6832485486917049, 0.31789681864928415], [0.44158733163143055, -0.3675059148142517, -0.5727456523394591]]" pbc="F F F"
H        1.46089965       1.69367687       1.36405488
O        0.87223111       1.39038731       0.52453869
H        0.17923588       1.59375841       1.46480406
3
Properties=species:S:1:pos:R:3 REF_energy="_JSON [[1.0, 1.0, 1.0]]" REF_dipoles="_JSON [[-0.8684972222177432, -0.31574616674621914, 1.290790403416716], [0.06772399328420933, 1.0937895898162784, 0.6376499207358433], [1.4710749241529755, 0.019965957502846635, 1.5151932069044207]]" pbc="F F F"
H        0.19958220       1.77525687       1.44939992
O        1.52668280       1.28969895       1.33898790
H        1.44362398       0.88021680       1.59671102
3
Properties=species:S:1:pos:R:3 REF_energy="_JSON [[1.0, 1.0, 1.0]]" REF_dipoles="_JSON [[-1.723246225925439, -0.5139201056986366, -0.8085817389774622], [-1.0140242565750097, -0.0984535011740889, -0.1763284683977685], [0.055210118848440425, 0.4280219322048849, -1.1963344971234937]]" pbc="F F F"
H        0.84581506       0.07012218       0.44550701
O        0.14212018       0.36804692       1.72840919
H        0.51243231       1.73196123       0.31788865
3
Properties=species:S:1:pos:R:3 REF_energy="_JSON [[1.0, 1.0, 1.0]]" REF_dipoles="_JSON [[0.9370075802724604, -1.1034862196978643, 0.10193863513337975], [0.20520942233306566, 0.05953076282689063, -0.6290086783743641], [0.058427631021168006, 3.068427859086282, 0.06296704639437707]]" pbc="F F F"
H        0.43014916       0.33432403       1.72227377
O        0.39240229       1.11927808       1.98030161
H        0.00308006       0.74020019       1.29187726
3
Properties=species:S:1:pos:R:3 REF_energy="_JSON [[1.0, 1.0, 1.0]]" REF_dipoles="_JSON [[1.9108925817407396, -0.3653369895504353, 0.043960315306705314], [-1.6398490951822324, 1.0352332294823448, -1.6210525176330242], [0.7329859686035177, 1.1616178142045535, 0.8890674703833814]]" pbc="F F F"
H        0.21934652       0.53044160       0.22700289
O        0.56182058       0.18356935       0.95338732
H        1.89800250       0.20970124       1.63878660
3
Properties=species:S:1:pos:R:3 REF_energy="_JSON [[1.0, 1.0, 1.0]]" REF_dipoles="_JSON [[2.0034689790619318, 0.5140885223754393, 0.40544119207100615], [-0.4439009053042258, 1.7038969940836877, 0.138593198127942], [-0.45494159167033144, -1.749822625958532, 0.6534412007145347]]" pbc="F F F"
H        0.38635758       0.76197049       0.57571682
O        0.97055190       1.77203066       1.86763625
H        1.90998482       0.92212081       1.61470640
3
Properties=species:S:1:pos:R:3 REF_energy="_JSON [[1.0, 1.0, 1.0]]" REF_dipoles="_JSON [[0.35065717548164616, -2.3802391476595965, 0.40059282454735207], [-0.3394465748753767, -0.921405489612415, -0.3226399794947439], [1.747591174403432, 2.789494308195079, -0.41520788928398716]]" pbc="F F F"
H        1.45115206       0.65642402       0.87176435
O        1.08725828       1.51759012       1.78300162
H        0.35541210       0.07506412       0.24185549
3
Properties=species:S:1:pos:R:3 REF_energy="_JSON [[1.0, 1.0, 1.0]]" REF_dipoles="_JSON [[1.5628827932922094, -0.7529241024687567, 0.3562036731563984], [1.186493836862548, 0.658934991043744, 0.3169542829060254], [0.34920368768518206, -0.17894735799005976, -0.045478422902522506]]" pbc="F F F"
H        1.94717140       0.68028439       1.42482759
O        0.56330586       1.65926201       0.17436352
H        0.78432757       1.07142718       0.83574539
3
Properties=species:S:1:pos:R:3 REF_energy="_JSON [[1.0, 1.0, 1.0]]" REF_dipoles="_JSON [[-1.537886327472988, 0.6043360838950365, 0.9197146001914328], [-1.135964115512944, 0.5999489636649193, 1.5184595372568432], [1.6270711457602192, -0.451115208402065, -2.242856732565035]]" pbc="F F F"
H        1.60093343       0.15561503       1.33918660
O        0.90683178       1.95627334       1.61041749
H        1.98119033       0.25115534       1.28808359
3
Properties=species:S:1:pos:R:3 REF_energy="_JSON [[1.0, 1.0, 1.0]]" REF_dipoles="_JSON [[-1.004920921970003, -0.5306238058263472, -0.6437932447264879], [0.3645388458984343, 1.5034901316449651, -0.0037643171219947863], [-0.6394418349760913, -1.3697733189819317, 0.8146507481160136]]" pbc="F F F"
H        0.36606617       1.97370186       0.93833929
O        0.10543419       0.54564047       1.71064389
H        0.05213271       0.36354057       0.77431109
3
Properties=species:S:1:pos:R:3 REF_energy="_JSON [[1.0, 1.0, 1.0]]" REF_dipoles="_JSON [[1.3366176847096032, -1.471477964865247, 0.8762793420111886], [1.5262778180350733, -0.5066174964084248, -0.9678110427386457], [-0.4362997499073396, 1.1604630720797133, 1.2744799239313205]]" pbc="F F F"
H        0.46900943       0.04533404       0.50045306
O        1.74589982       1.91825842       0.99648692
H        1.09421323       1.87944177       0.30417051
3
Properties=species:S:1:pos:R:3 REF_energy="_JSON [[1.0, 1.0, 1.0]]" REF_dipoles="_JSON [[-0.769957123744552, -0.541347345656962, -1.0124913550212307], [1.7423737925565892, -0.37089712877809333, 0.03938997568192355], [0.7936698555962803, -0.5431704978513721, 0.6419992074433571]]" pbc="F F F"
H        0.42946647       0.27515835       0.83633160
O        1.65072243       1.86490219       1.16174024
H        1.96909932       1.14969770       0.03746900
3
Properties=species:S:1:pos:R:3 REF_energy="_JSON [[1.0, 1.0, 1.0]]" REF_dipoles="_JSON [[-0.2054900753220529, -1.0063701844961697, -0.688476469099289], [0.6996281649969892, 1.2717584208818302, 0.8632529129679473], [0.8493917547139396, -0.8391020015867244, 0.7286148704575903]]" pbc="F F F"
H        1.03202510       0.19077014       0.03198696
O        1.14287806       0.98680855       1.79648790
H        0.43811466       0.37465773       0.45910694
3
Properties=species:S:1:pos:R:3 REF_energy="_JSON [[1.0, 1.0, 1.0]]" REF_dipoles="_JSON [[1.1294582740182066, -0.7975869316703039, 2.4352717142418414], [-0.7840419140881221, 0.6885502577117569, 0.45223213513982286], [0.47064265788504844, -0.04462303186901631, -1.5972697589508562]]" pbc="F F F"
H        0.72855620       0.38861978       1.40880884
O        0.62621056       0.72402984       0.19275759
H        0.80852590       0.12650515       0.60451715
3
Properties=species:S:1:pos:R:3 REF_energy="_JSON [[1.0, 1.0, 1.0]]" REF_dipoles="_JSON [[-0.28873421793287607, 2.052052190968862, 0.4074875926363745], [-1.209595017631034, 0.8681440210754794, 0.5302331428656419], [-1.4197189749099057, 1.1190982258579139, 0.08449173401216914]]" pbc="F F F"
H        0.69590440       1.96501335       1.22315282
O        0.96804949       1.61747699       1.10347779
H        1.81475038       1.34252375       0.18894067
3
Properties=species:S:1:pos:R:3 REF_energy="_JSON [[1.0, 1.0, 1.0]]" REF_dipoles="_JSON [[-1.3941944452836506, 1.7690377845247827, -0.020681116910314466], [0.13293677655682265, -0.8708244905245577, 0.7729122746442034], [-1.1841759046157527, 1.7631596401031528, -0.5280737968088186]]" pbc="F F F"
H        1.42527614       1.11989942       0.06708354
O        0.80611284       0.39919888       1.48997186
H        1.36190376       1.06468182       0.10195545
3
Properties=species:S:1:pos:R:3 REF_energy="_JSON [[1.0, 1.0, 1.0]]" REF_dipoles="_JSON [[0.8449430825480255, 0.9932843474323961, 1.364082542523204], [-1.3782048950633692, 0.07025502624613274, -0.037962314062467625], [2.1542431677485427, 0.4737604708617148, 0.671546650421128]]" pbc="F F F"
H        0.70895019       1.97832036       1.18426980
O        1.08158949       1.51030831       1.90240882
H        1.38063941       1.73401911       1.62654326
3
Properties=species:S:1:pos:R:3 REF_energy="_JSON [[1.0, 1.0, 1.0]]" REF_dipoles="_JSON [[-0.46055044325805666, 0.1860325681074169, 1.3129846381882964], [-0.5162231202472328, -0.09795286534392678, -0.18256855219865686], [-0.8606014110459226, -0.7918784412365798, -0.34984311795032125]]" pbc="F F F"
H        0.90828360       0.11917866       0.51545428
O        1.70987708       1.58645205       1.09544963
H        1.36254355       0.49447658       0.53016439
3
Properties=species:S:1:pos:R:3 REF_energy="_JSON [[1.0, 1.0, 1.0]]" REF_dipoles="_JSON [[-2.2375140908313065, 0.07006233554091909, -0.990837219200693], [-0.0924369618923281, -0.9510089653629406, 0.2922301362811284], [0.19418627084070497, 1.7348507929974097, 1.107204631523448]]" pbc="F F F"
H        0.84497268       1.46277146       0.48485904
O        1.70416922       1.67442476       0.79590440
H        1.06697102       1.34143855       0.37893142
3
Properties=species:S:1:pos:R:3 REF_energy="_JSON [[1.0, 1.0, 1.0]]" REF_dipoles="_JSON [[0.4578478981234722, -0.3754627149121983, 1.662790982370034], [1.1698647712509547, 1.8619675867410295, -0.5748524673147165], [-0.48847008260803765, 0.9621411184436497, -0.1964354349619971]]" pbc="F F F"
H        0.48308827       0.61596122       1.79658460
O        0.01637614       1.70722185       0.43820506
H        0.01338670       1.82629867       0.97863449
3
Properties=species:S:1:pos:R:3 REF_energy="_JSON [[1.0, 1.0, 1.0]]" REF_dipoles="_JSON [[1.0220043500140161, -1.104320385883139, -0.974745919909717], [0.37487302284628066, 0.2063081158084576, 1.0355542368477786], [1.221663213683672, 0.3707534476115761, 0.23073387921502767]]" pbc="F F F"
H        0.72012083       1.34285887       1.00431101
O        0.32158278       0.12333140       1.94576163
H        0.43139818       0.22645993       1.00030153
3
Properties=species:S:1:pos:R:3 REF_energy="_JSON [[1.0, 1.0, 1.0]]" REF_dipoles="_JSON [[-0.8870315277527301, -0.5579025802920242, -0.3774559197509905], [0.9838528975472961, -0.5757603246259546, 0.48635243289277574], [1.0015981614497202, -0.6714082321931927, -1.6378926437598513]]" pbc="F F F"
H        0.92614802       1.32166730       1.08064984
O        1.95382868       0.01930087       0.29020401
H        0.03836603       0.32544497       1.83413370
3
Properties=species:S:1:pos:R:3 REF_energy="_JSON [[1.0, 1.0, 1.0]]" REF_dipoles="_JSON [[1.6754484529699682, 0.234694369730055, -1.0496550161762808], [-1.0830886374100241, -0.8501498962813305, 0.15386621856941116], [0.9235977991893283, 0.651334780731372, -0.44804719095812345]]" pbc="F F F"
H        0.65356675       1.94267837       0.58107408
O        1.82142955       1.93557152       1.10839993
H        0.00411345       0.64919632       0.39444288
3
Properties=species:S:1:pos:R:3 REF_energy="_JSON [[1.0, 1.0, 1.0]]" REF_dipoles="_JSON [[3.1240382082310925, 0.36188398203340705, 0.3188848155407677], [0.8193724226539555, -1.9638104646705279, 1.2039532207650037], [-1.0321876548019215, -1.8884478287103317, -0.6987776932134263]]" pbc="F F F"
H        0.66615862       0.20228321       1.36950477
O        1.63902875       1.50258255       0.35193595
H        0.42812342       0.54906712       0.71989964
3
Properties=species:S:1:pos:R:3 REF_energy="_JSON [[1.0, 1.0, 1.0]]" REF_dipoles="_JSON [[0.197289757904501, -0.0740511210148543, -0.6009573403793794], [-0.5325749866945084, -0.8135713186132496, 0.45539262537536107], [-0.4616697910831342, 0.26905504247385603, 1.6274033297084076]]" pbc="F F F"
H        1.02330703       1.43172103       1.19188729
O        0.84207773       1.40005821       0.99732019
H        0.53205241       1.07121203       0.10870010
3
Properties=species:S:1:pos:R:3 REF_energy="_JSON [[1.0, 1.0, 1.0]]" REF_dipoles="_JSON [[-2.1931519668982205, 0.9000231858945338, -0.015728400439370172], [-0.661043518886074, -0.2676818336915119, 0.860992100774953], [-1.8188894779561178, -0.4409241947491805, -0.789711134867442]]" pbc="F F F"
H        1.81741574       1.70617683       0.51874458
O        1.33023385       1.31173045       0.64921652
H        1.35702959       0.84822314       0.91188969
3
Properties=species:S:1:pos:R:3 REF_energy="_JSON [[1.0, 1.0, 1.0]]" REF_dipoles="_JSON [[-1.2187195046091504, -0.17654235463288043, 0.5518051913578808], [0.9002855703670027, 0.637472628027633, -0.2078615052282945], [-0.5204654433142986, 0.44620816453702944, -0.24878753358892164]]" pbc="F F F"
H        1.41710693       0.94964281       1.27289588
O        0.01588167       1.57308613       0.01172327
H        1.36245795       1.71734814       1.49158661
3
Properties=species:S:1:pos:R:3 REF_energy="_JSON [[1.0, 1.0, 1.0]]" REF_dipoles="_JSON [[0.09580676198447939, -1.1308605829241942, 1.3550510616346951], [1.2713882381220964, -0.051292031249615434, -1.27468267392435], [0.5811424829463939, -0.2601307802520833, -1.1184145454556391]]" pbc="F F F"
H        0.60007889       0.17723830       1.72476520
O        0.07739171       0.10387642       0.20599481
H        1.48606575       1.04604358       1.67643014
3
Properties=species:S:1:pos:R:3 REF_energy="_JSON [[1.0, 1.0, 1.0]]" REF_dipoles="_JSON [[0.612230253129276, 1.026494289244243, 0.06094372102457121], [0.5608886233866858, -0.747712203553114, 0.2583335590987903], [-0.13070544565209818, -0.0636371043889328, 2.7716119504190173]]" pbc="F F F"
H        1.66071235       0.31792871       0.03258605
O        1.81334613       1.41593103       1.79612428
H        0.39546919       1.25351926       0.11519357
3
Properties=species:S:1:pos:R:3 REF_energy="_JSON [[1.0, 1.0, 1.0]]" REF_dipoles="_JSON [[0.4793188607739335, -0.5666632380422116, 0.5118321094886844], [-0.13874156278021504, 0.652698846287846, 0.7328012557163616], [-0.05603457497412885, -0.7959691761825344, -0.3995590539954634]]" pbc="F F F"
H        0.54265095       1.26763484       1.38880216
O        0.50503809       0.28677301       1.48015395
H        1.22261370       1.69211526       0.46395354
3
Properties=species:S:1:pos:R:3 REF_energy="_JSON [[1.0, 1.0, 1.0]]" REF_dipoles="_JSON [[-1.8982814647366033, 1.0568253162333705, -0.5409861977726865], [-0.5390221379368108, 0.3736221728887342, -0.4768436374705329], [-0.09044903242924825, 0.2453576236926871, 0.48218255024082224]]" pbc="F F F"
H        1.93637005       0.36433687       1.51926033
O        1.90694392       1.37527169       0.15221812
H        1.57947011       1.47732638       1.12552974
3
Properties=species:S:1:pos:R:3 REF_energy="_JSON [[1.0, 1.0, 1.0]]" REF_dipoles="_JSON [[-1.0107870037386393, -0.5437464140840819, -1.4578395588040127], [1.6863679819773814, -0.8415963176788798, -0.5675605975736637], [2.8722860660427485, 1.4714056588030726, 1.1454061382028504]]" pbc="F F F"
H        0.07150584       0.04296787       1.57549573
O        0.13534806       0.05555362       1.73267428
H        1.24623722       0.05212851       0.91537816
3
Properties=species:S:1:pos:R:3 REF_energy="_JSON [[1.0, 1.0, 1.0]]" REF_dipoles="_JSON [[1.3217121785694759, -0.16403810072989553, -0.727356436981028], [-1.0251304474978757, 0.34856978421562984, 0.05529154541174623], [1.097352951078198, -1.2471499498914373, 0.6314357063529803]]" pbc="F F F"
H        0.59023372       0.02609407       1.24553317
O        0.82562072       1.30534067       0.08571604
H        0.61087574       0.22688443       1.91706662
3
Properties=species:S:1:pos:R:3 REF_energy="_JSON [[1.0, 1.0, 1.0]]" REF_dipoles="_JSON [[0.27434630891799827, -0.08593340926729891, 0.005781402671149915], [1.060457059674094, 0.3771310424976331, 0.8141236885934152], [0.37469355850449815, -0.4139299740079703, 0.24830727443914533]]" pbc="F F F"
H        1.01523173       1.68765662       0.41218968
O        0.75725455       0.55336710       0.65500998
H        1.92411810       0.60020435       0.32275589
3
Properties=species:S:1:pos:R:3 REF_energy="_JSON [[1.0, 1.0, 1.0]]" REF_dipoles="_JSON [[-0.2070439325331269, -0.6647262526749117, 1.3784499062293445], [2.403913842995511, 0.49845538140792833, -0.9586746955400782], [-0.10268781814236395, 0.579647789492294, -0.025968097453561427]]" pbc="F F F"
H        1.81839455       0.40315579       1.55126937
O        1.53760926       0.24377555       1.84866115
H        1.20764653       1.63666845       1.35743026
3
Properties=species:S:1:pos:R:3 REF_energy="_JSON [[1.0, 1.0, 1.0]]" REF_dipoles="_JSON [[1.3186257276250184, 0.757306564416358, -0.2060005813510647], [0.5147183648888402, -1.3310895338722668, -2.1575463984232734], [-0.7978511271288833, 0.39327345682684606, 0.8470997222986358]]" pbc="F F F"
H        1.21522554       0.66447228       1.43025083
O        1.55128055       0.92878851       0.50351586
H        1.99099747       1.72854478       1.93703935
3
Properties=species:S:1:pos:R:3 REF_energy="_JSON [[1.0, 1.0, 1.0]]" REF_dipoles="_JSON [[1.3945596863314458, 0.8426751867089997, -0.17892440035567062], [0.572557185907028, -2.219381679786177, -0.4766061415944423], [-0.5353756596664642, -0.3505512615710259, 0.6382775861741636]]" pbc="F F F"
H        1.43962862       1.96735222       1.84617877
O        0.58619857       1.50214880       0.20987969
H        0.15550319       1.65167364       1.58456662
3
Properties=species:S:1:pos:R:3 REF_energy="_JSON [[1.0, 1.0, 1.0]]" REF_dipoles="_JSON [[0.5390177007876995, 0.47303938595475786, -0.1789801669873338], [-0.7418809928057235, -1.911701013792402, -0.04287118834624623], [-0.6046676491155801, -1.2713967822219352, -0.5636655165673219]]" pbc="F F F"
H        0.74429643       0.31823694       0.37480619
O        0.26623056       1.59390091       0.15463629
H        1.25378948       1.80305187       1.91890384
3
Properties=species:S:1:pos:R:3 REF_energy="_JSON [[1.0, 1.0, 1.0]]" REF_dipoles="_JSON [[-1.1262053755503911, -0.25391834412932285, 0.00012200180906623645], [-0.12952474244141038, 1.543197222249263, 1.116697402596309], [-0.8684380512618229, 0.8926898402640284, 1.3345731131547023]]" pbc="F F F"
H        0.18764646       0.50238926       0.75011047
O        0.18545033       1.12263729       1.19838274
H        1.09151747       0.27222972       1.51101434
3
Properties=species:S:1:pos:R:3 REF_energy="_JSON [[1.0, 1.0, 1.0]]" REF_dipoles="_JSON [[0.818779159656382, 0.02562445469212877, 0.7395298877931348], [-0.09505333530878829, -0.3754353359000898, -0.940361307882888], [-1.003264286742292, -0.22951291208907315, -1.2583987978160778]]" pbc="F F F"
H        0.43980797       0.00925419       1.68395269
O        1.28452086       1.91236798       1.67693631
H        0.72875770       1.10674462       0.52744170
3
Properties=species:S:1:pos:R:3 REF_energy="_JSON [[1.0, 1.0, 1.0]]" REF_dipoles="_JSON [[0.019047584964879363, -0.5202511131291578, 0.8410544705129706], [-0.62370677761184, -0.03670217561072395, -0.5057969660678494], [0.8052489886806674, -0.2779305266695996, -0.32275858111421185]]" pbc="F F F"
H        1.37946622       0.10126973       1.16801793
O        0.31261539       0.72217157       0.80382763
H        1.57049457       0.36178030       0.52277786
3
Properties=species:S:1:pos:R:3 REF_energy="_JSON [[1.0, 1.0, 1.0]]" REF_dipoles="_JSON [[1.8048823168779748, 1.6088308920337804, -1.6878289363519914], [-2.03739367908046, -0.028740840352649663, -0.6353906910944745], [2.4595786620621887, -2.028769845426724, -0.409482323061394]]" pbc="F F F"
H        1.46047027       0.80345647       0.04351932
O        1.23156763       0.24344367       0.40700190
H        1.27371392       1.09846617       1.73894953
3
Properties=species:S:1:pos:R:3 REF_energy="_JSON [[1.0, 1.0, 1.0]]" REF_dipoles="_JSON [[-0.4497818388291866, 0.9225053603364263, 0.5688244009348153], [1.2252720741312582, -0.5430246070200484, 1.0267553494704151], [1.1715671684008109, 1.6191800603902127, 1.016337377087515]]" pbc="F F F"
H        0.82700769       0.17963368       0.43295877
O        1.96002507       1.33130809       1.12163548
H        1.61333033       0.21009977       1.30013285
3
Properties=species:S:1:pos:R:3 REF_energy="_JSON [[1.0, 1.0, 1.0]]" REF_dipoles="_JSON [[0.632795492784658, -0.14207493301166324, -0.12954470464626347], [0.14820841997145476, -0.3746537657008496, -1.0643459637185309], [-1.6203350503028586, -0.7813560886348335, -0.3958892819404475]]" pbc="F F F"
H        1.93955167       0.93736051       0.20791316
O        1.32296915       1.38578481       0.50777572
H        0.08536376       1.07244332       1.82159441
3
Properties=species:S:1:pos:R:3 REF_energy="_JSON [[1.0, 1.0, 1.0]]" REF_dipoles="_JSON [[1.0616574771578966, -0.8756249019296283, 0.7968521849045224], [-0.33324322085477526, -1.3908219318757304, 1.0845189095041718], [0.6019620656150878, -0.9435885610367801, 0.15756783078781966]]" pbc="F F F"
H        0.46827067       0.32871557       1.42445167
O        1.16935092       0.65452587       0.83213322
H        1.01865164       1.73350695       0.37114622
3
Properties=species:S:1:pos:R:3 REF_energy="_JSON [[1.0, 1.0, 1.0]]" REF_dipoles="_JSON [[0.2039557157096764, -0.7701542231018169, -1.3316061210873855], [-0.2248019073604839, -0.32704019640850596, 1.3608326684956396], [0.5158699824935055, -1.179416824244363, 0.273239165974867]]" pbc="F F F"
H        1.33335796       0.25824783       0.84658122
O        0.35654108       1.03962221       0.87280239
H        0.32505171       0.08919072       0.18571100
3
Properties=species:S:1:pos:R:3 REF_energy="_JSON [[1.0, 1.0, 1.0]]" REF_dipoles="_JSON [[-1.1684467506580218, -0.2051894464045196, 0.8497434753133595], [-2.128739403165325, -0.017676342274230972, -0.05809524398197642], [1.5981942630778583, -0.7590901803945719, -2.1089609867047985]]" pbc="F F F"
H        0.95099930       0.58901042       0.45460878
O        0.42851903       1.92579525       1.36927986
H        1.16540530       1.98420343       0.13178907
3
Properties=species:S:1:pos:R:3 REF_energy="_JSON [[1.0, 1.0, 1.0]]" REF_dipoles="_JSON [[0.7792696465079333, 0.08058489436726417, 0.527829110989277], [-1.5449223367896543, -0.5429067583582167, 1.3142700094404056], [-0.5682759491235903, -0.051492929572591266, -1.7949439994961263]]" pbc="F F F"
H        1.09516614       1.71922807       1.87078651
O        0.21497360       0.26182446       1.74349026
H        0.57329421       1.50135048       0.75483978
3
Properties=species:S:1:pos:R:3 REF_energy="_JSON [[1.0, 1.0, 1.0]]" REF_dipoles="_JSON [[0.40844867984280453, 2.4151018626892795, 1.0400749215328398], [0.49066384872079133, 0.8219250175612699, -0.7425578171847084], [-0.07973089125938906, -2.479904616837689, 0.4913942247805865]]" pbc="F F F"
H        1.24873554       1.50514879       1.87867802
O        1.19027275       0.14523543       1.41191430
H        0.04090888       0.07316420       0.24371985
3
Properties=species:S:1:pos:R:3 REF_energy="_JSON [[1.0, 1.0, 1.0]]" REF_dipoles="_JSON [[0.9880776635474264, 1.1491182765940513, 1.1278487420730516], [0.9505051657863843, -0.05979912087175244, -0.5934385301925318], [0.3742601403745642, -1.2829621498070434, 0.10522233393989229]]" pbc="F F F"
H        0.04005289       1.91448815       1.16592108
O        1.62079238       1.80261108       1.86801839
H        1.41778851       1.05342429       1.04378506
3
Properties=species:S:1:pos:R:3 REF_energy="_JSON [[1.0, 1.0, 1.0]]" REF_dipoles="_JSON [[-0.5648234825267348, 0.3549552279940066, -1.1124174262421058], [-0.5193127923964843, 0.4667956103987916, 1.3225569449292962], [-0.45038951726534643, 0.502923630885196, 1.6000942145038077]]" pbc="F F F"
H        1.25905375       1.00442647       0.28132350
O        1.30693957       1.63277103       1.28906591
H        0.40839603       0.65962978       1.59481925
3
Properties=species:S:1:pos:R:3 REF_energy="_JSON [[1.0, 1.0, 1.0]]" REF_dipoles="_JSON [[-0.6104851986545932, -0.8844246043047737, 0.3779744603005024], [0.877856649487991, -0.7683949879064473, -2.5671759556378544], [2.41697829325545, 0.12634273175881958, -0.46862323105591996]]" pbc="F F F"
H        0.19729184       0.14019871       1.73115026
O        0.18367749       0.31093781       0.10622547
H        0.20548768       1.97695540       0.43586481
3
Properties=species:S:1:pos:R:3 REF_energy="_JSON [[1.0, 1.0, 1.0]]" REF_dipoles="_JSON [[-1.2377449507843836, -0.5185290430826008, 0.2836217886741214], [-0.26250582589920324, -0.6348721816554128, 1.1560420123071817], [-1.0341248119649697, -1.2277529560974951, 0.24851993415648715]]" pbc="F F F"
H        0.57947573       0.68371774       0.34943185
O        0.86901537       0.68666494       1.43666589
H        1.70270756       1.57504347       1.79686608
3
Properties=species:S:1:pos:R:3 REF_energy="_JSON [[1.0, 1.0, 1.0]]" REF_dipoles="_JSON [[0.3779208932160756, 0.7070401282803416, -0.2827225233120093], [-0.49975544974512925, -0.35064730045902043, -0.5550594280696496], [1.8782926231749082, 1.1966491117908795, -0.5614068308943626]]" pbc="F F F"
H        0.12098270       1.19228868       0.66105143
O        0.91323695       1.33608453       1.51552590
H        0.63708176       1.11094413       1.92168821
3
Properties=species:S:1:pos:R:3 REF_energy="_JSON [[1.0, 1.0, 1.0]]" REF_dipoles="_JSON [[1.5175622741813672, -1.3634091006797495, -0.8378597637146453], [0.7240339345288257, 0.543352157664846, 0.5748372496714121], [1.719631132604335, -0.583101977699829, 1.790785099301677]]" pbc="F F F"
H        1.92293867       0.26465923       1.70441780
O        0.04720718       0.63859139       1.79109115
H        1.56832048       0.32545561       0.27821456
3
Properties=species:S:1:pos:R:3 REF_energy="_JSON [[1.0, 1.0, 1.0]]" REF_dipoles="_JSON [[-0.5314162499086557, 1.1863631214592978, -0.5543095933362359], [0.4068973548213277, -0.7706366861350805, 1.1953904197641958], [1.171092413802728, 0.15134506671214443, 1.6902687196693233]]" pbc="F F F"
H        0.26027512       1.02980517       0.97592766
O        0.86843877       0.04805192       1.33171000
H        1.53525861       0.31173516       0.07934329
3
Properties=species:S:1:pos:R:3 REF_energy="_JSON [[1.0, 1.0, 1.0]]" REF_dipoles="_JSON [[-1.7631860714277245, 0.05975230385272536, -0.4238795945187547], [-0.15443970085659295, 0.4984320884122058, 0.0731885450702802], [0.2472631765862203, 1.2874344759073262, 0.2620719955437629]]" pbc="F F F"
H        1.77050633       1.42517562       1.10153885
O        0.86527979       0.28172740       0.35560602
H        1.60711958       0.96532767       1.63235510
3
Properties=species:S:1:pos:R:3 REF_energy="_JSON [[1.0, 1.0, 1.0]]" REF_dipoles="_JSON [[-0.04957267723781091, -0.749705620130783, 0.015329845866611872], [0.16936841489163637, -0.8925966011072782, -0.18642746004017052], [-0.28146941766789896, 1.3036141693720462, 0.7840961826278708]]" pbc="F F F"
H        0.98683947       0.92546963       0.44635136
O        1.26461295       1.02453696       0.46502574
H        0.35611302       0.25514885       0.35782249
3
Properties=species:S:1:pos:R:3 REF_energy="_JSON [[1.0, 1.0, 1.0]]" REF_dipoles="_JSON [[-1.762073899083571, 0.8092321442032767, 0.5417352136006365], [-0.8181499782223519, -0.2718802941313743, 0.35147755441545503], [1.1210196311494622, -0.5027022845847933, -1.2909408083026235]]" pbc="F F F"
H        0.71046215       1.79316784       1.48300935
O        1.38717415       0.90717452       1.66216871
H        0.05639361       0.96022773       1.08153255
3
Properties=species:S:1:pos:R:3 REF_energy="_JSON [[1.0, 1.0, 1.0]]" REF_dipoles="_JSON [[-0.5073854379250664, 1.105848366619424, -0.27077085539569873], [0.3399582993958779, 1.0854001162703053, 1.8542689082141341], [-1.7671539941557628, 1.4254783466420078, -0.030962451040570056]]" pbc="F F F"
H        1.18088785       1.32196379       0.18143676
O        1.85285897       1.11041021       0.65965773
H        0.92956674       0.07752316       0.77688676
3
Properties=species:S:1:pos:R:3 REF_energy="_JSON [[1.0, 1.0, 1.0]]" REF_dipoles="_JSON [[-0.7504623667785505, 0.07103460973494898, 1.5360437712544759], [-0.6728060406749707, 1.058515979861351, 1.0772683994263774], [-1.5900001660010177, -1.6542927428306424, -0.546328979887707]]" pbc="F F F"
H        0.44133208       0.65132230       0.39422967
O        0.50801644       0.71787075       1.26523395
H        0.94885684       0.03575478       1.53206199
3
Properties=species:S:1:pos:R:3 REF_energy="_JSON [[1.0, 1.0, 1.0]]" REF_dipoles="_JSON [[-0.12188893899500598, 0.002313168589379817, 0.5087615273620438], [-0.7249174260713924, -0.9864622584176895, -0.10265265580632511], [-0.22524406892885693, -0.8945169038804719, 2.017490471858542]]" pbc="F F F"
H        1.11691636       1.78529830       1.99061415
O        1.46297611       0.86788979       0.69476417
H        1.74322557       1.42973653       0.81378856
3
Properties=species:S:1:pos:R:3 REF_energy="_JSON [[1.0, 1.0, 1.0]]" REF_dipoles="_JSON [[0.6971440280413114, 0.4513127608756738, 0.7002896433178443], [2.241756799444749, 0.4377017299466868, -0.36109448756527907], [-0.45960802451857363, -0.7099118792167495, 1.547010689458152]]" pbc="F F F"
H        0.11524493       0.41374637       1.47033129
O        0.66939752       1.36437071       1.52671306
H        1.20455867       0.74497769       0.29661244
3
Properties=species:S:1:pos:R:3 REF_energy="_JSON [[1.0, 1.0, 1.0]]" REF_dipoles="_JSON [[3.260350962919954, 0.7480841506213514, 0.23601931793355255], [-1.6114133735952225, 0.029740169033583435, -0.32961805030653507], [1.0510030570552376, -0.29548172213003343, 0.7225572881489999]]" pbc="F F F"
H        1.68672398       1.60454244       0.46142063
O        0.46223106       1.54481179       0.09350126
H        0.14678088       0.94743257       1.38224257
3
Properties=species:S:1:pos:R:3 REF_energy="_JSON [[1.0, 1.0, 1.0]]" REF_dipoles="_JSON [[-1.6298171036875855, -1.9711800685373695, -0.31063462462017444], [-0.52600076881381, -0.7130518215375444, 2.1480521845892095], [0.20779210211539406, -1.5071349468700375, 0.22980699838844532]]" pbc="F F F"
H        1.14160232       0.38347960       1.91986156
O        1.97986144       1.11990843       0.03487729
H        0.78346836       0.40668600       1.81071687
3
Properties=species:S:1:pos:R:3 REF_energy="_JSON [[1.0, 1.0, 1.0]]" REF_dipoles="_JSON [[-1.3435978996248366, -2.114989872944634, -0.2917092156534523], [0.06448400926170272, -2.563732348542473, -0.23394420406514702], [-0.43275600165706324, -0.8663081792699825, -0.32639980545794683]]" pbc="F F F"
H        0.90372335       1.03405950       0.86079942
O        1.33026184       0.02705030       0.06852650
H        0.06953936       0.13693524       1.49306330
3
Properties=species:S:1:pos:R:3 REF_energy="_JSON [[1.0, 1.0, 1.0]]" REF_dipoles="_JSON [[0.8251039859230768, 1.4529403850850195, -0.7987251740675594], [0.4920002812199661, 0.17058519213378054, 1.0516991945260359], [1.3694435051165208, -0.7344172309875717, 0.056325718438073547]]" pbc="F F F"
H        1.27215512       0.98963655       0.33481682
O        0.16642757       1.79683139       1.76762021
H        0.49671682       1.47413871       0.14417509
3
Properties=species:S:1:pos:R:3 REF_energy="_JSON [[1.0, 1.0, 1.0]]" REF_dipoles="_JSON [[-0.7174990954110813, -0.7511873145737265, 0.709309905167508], [0.42533793238204287, -0.6789041082069915, -1.4230943830033886], [-0.17142776492911402, -0.06947399538363569, 1.038161873363739]]" pbc="F F F"
H        0.43607595       0.19272072       0.90290178
O        0.54019173       0.65021952       0.35341872
H        1.66268864       0.43957899       1.18181182
3
Properties=species:S:1:pos:R:3 REF_energy="_JSON [[1.0, 1.0, 1.0]]" REF_dipoles="_JSON [[-1.261898470539174, 1.2766946331948545, -1.3258270415564846], [-2.2457279057606048, -1.1042795536315086, -1.052028738977564], [-0.25920574526301193, -0.16449757262906797, 1.6185617900245726]]" pbc="F F F"
H        0.28022627       0.71360748       1.42788741
O        1.02761473       0.27809013       0.00471818
H        1.59819186       0.99312961       1.40573382
3
Properties=species:S:1:pos:R:3 REF_energy="_JSON [[1.0, 1.0, 1.0]]" REF_dipoles="_JSON [[-0.826853822912239, -0.8306919517127603, -0.32509028886865876], [0.7389832292886397, -0.8591670822341612, 1.092515640747668], [0.9187808829757692, -0.022975344155198564, 1.0667107603038357]]" pbc="F F F"
H        1.58348136       1.85651031       0.27330229
O        0.83541696       1.68282502       0.63205780
H        1.85655016       1.06410046       1.89825778
3
Properties=species:S:1:pos:R:3 REF_energy="_JSON [[1.0, 1.0, 1.0]]" REF_dipoles="_JSON [[1.2617497670846998, 2.1285190563855916, -0.4949200752001211], [-1.3878698403417586, 0.3110875353624692, 2.6133148137921567], [0.6645355742997998, 1.5927310472207257, 1.6958505181698074]]" pbc="F F F"
H        1.53933839       0.17017849       0.08168697
O        1.77535980       0.80010495       0.71947783
H        0.15274468       1.92701701       1.08302922
3
Properties=species:S:1:pos:R:3 REF_energy="_JSON [[1.0, 1.0, 1.0]]" REF_dipoles="_JSON [[0.32242607733761885, -1.1764174845241107, 1.2984461521741846], [-0.8865228179759371, -0.5680496179744714, -0.4010382192334473], [-1.055506050744307, 0.8222054628954242, -1.0833624821419383]]" pbc="F F F"
H        1.25087592       1.94450683       1.98566934
O        1.17585839       1.22564284       1.98753985
H        0.26236963       1.50867584       0.55681054
3
Properties=species:S:1:pos:R:3 REF_energy="_JSON [[1.0, 1.0, 1.0]]" REF_dipoles="_JSON [[-0.73287571133957, 0.05051435013409556, 0.3017714193351974], [0.4021497624315546, 0.48417863417727025, 0.6398918549322031], [0.3027013286218849, -0.09950747134286143, -0.3465292666315719]]" pbc="F F F"
H        0.58892378       0.61753336       0.43219002
O        0.30180734       0.00491464       0.47718586
H        1.85930642       0.62727521       0.49115925
3
Properties=species:S:1:pos:R:3 REF_energy="_JSON [[1.0, 1.0, 1.0]]" REF_dipoles="_JSON [[0.3070788928492107, 0.2241304362412423, 0.736526133311203], [0.16989986629090875, -0.32955893382209284, 0.7067745538394734], [-1.3109124343665377, -0.4020935001651184, -0.6524371735392418]]" pbc="F F F"
H        1.64417100       0.78335496       1.95009176
O        0.52170961       0.17392990       0.53660967
H        1.30667801       0.84985319       1.73263665
3
Properties=species:S:1:pos:R:3 REF_energy="_JSON [[1.0, 1.0, 1.0]]" REF_dipoles="_JSON [[0.24783124334407444, 1.0754025420224598, 1.2863577309328398], [-0.658799651945815, 0.5258367164427153, -1.740952234454508], [0.3918450395225675, -0.387970809452224, -0.040195088228242824]]" pbc="F F F"
H        1.60909934       1.52907132       0.65107487
O        1.95763199       0.56748511       0.78082500
H        1.54566142       1.36046432       0.41630602
3
Properties=species:S:1:pos:R:3 REF_energy="_JSON [[1.0, 1.0, 1.0]]" REF_dipoles="_JSON [[-0.878488208993769, 0.7405484329756021, 2.2108007832632155], [0.39246808750742657, 0.9024235051658295, -0.7813907228479329], [-1.8147606716312983, 2.201510287466504, -0.8588710355477475]]" pbc="F F F"
H        1.96985408       1.10808646       0.98872506
O        1.44728331       0.12318888       0.15400284
H        0.09881477       1.25528310       1.27353578
3
Properties=species:S:1:pos:R:3 REF_energy="_JSON [[1.0, 1.0, 1.0]]" REF_dipoles="_JSON [[-0.8481812505170245, 1.089944273798925, -0.6636463905196998], [1.2356576887383952, 0.5754980405961835, -0.4438098928432913], [0.43330767748011634, 0.9328578072149164, 0.18806609939779226]]" pbc="F F F"
H        0.35797106       0.26055143       1.14380344
O        0.18419893       1.26295321       1.00993552
H        1.08625738       1.70579186       0.02960517
3
Properties=species:S:1:pos:R:3 REF_energy="_JSON [[1.0, 1.0, 1.0]]" REF_dipoles="_JSON [[-2.093918147548191, -1.3948564104212584, 2.1584549692118014], [0.8616158418311328, -0.41187126788553924, -1.6881255761345892], [0.7223686617800394, 0.5825452963684206, 0.4781473199313693]]" pbc="F F F"
H        0.27785193       0.45554274       0.15363685
O        1.83049417       1.26777831       1.20238373
H        0.16745011       0.43487783       0.61551874
3
Properties=species:S:1:pos:R:3 REF_energy="_JSON [[1.0, 1.0, 1.0]]" REF_dipoles="_JSON [[-1.2859807774528655, 0.6521176611792983, 0.9209402447269139], [-0.6175255740898793, 1.5599421545550158, -0.8107593879880196], [-0.6243224629222384, 0.5266812653565592, -2.049572888938866]]" pbc="F F F"
H        1.03783506       1.96600135       0.92992812
O        0.05666274       0.63352540       0.59488875
H        1.90068251       1.82339941       0.08107097
3
Properties=species:S:1:pos:R:3 REF_energy="_JSON [[1.0, 1.0, 1.0]]" REF_dipoles="_JSON [[0.4986243546020149, 0.022439465316103316, -1.4657614680664932], [0.981244225898447, -0.1282327868630991, -0.9734700827904733], [1.2904826627907, 1.1114827870942536, 0.491262153896864]]" pbc="F F F"
H        0.36183008       0.88037612       0.88001144
O        1.75608638       1.10043106       1.53217034
H        0.97074055       1.14920968       1.47380722
3
Properties=species:S:1:pos:R:3 REF_energy="_JSON [[1.0, 1.0, 1.0]]" REF_dipoles="_JSON [[-0.699716044805971, 0.11090204456045856, 1.434039895302968], [-0.20329387005170968, 0.7462068508724182, 2.5035220309758777], [0.4842108406054586, -0.6356633610746056, -0.7691554569672102]]" pbc="F F F"
H        0.14168177       0.78592617       0.54025902
O        1.42382389       0.65403937       1.66139918
H        0.64584275       1.02325853       1.24725648
3
Properties=species:S:1:pos:R:3 REF_energy="_JSON [[1.0, 1.0, 1.0]]" REF_dipoles="_JSON [[0.3738068839484115, 1.1863911050484222, 0.5703840108221669], [-1.2466367329612866, -0.2429907139763705, 0.05317057714340871], [1.1923478625804744, -0.6440624475799117, -1.6177602415519143]]" pbc="F F F"
H        0.50969121       0.74739392       1.99739663
O        1.98818445       0.20336444       1.28685237
H        0.07828538       1.96077034       0.52611191
3
Properties=species:S:1:pos:R:3 REF_energy="_JSON [[1.0, 1.0, 1.0]]" REF_dipoles="_JSON [[0.2784477902123135, -0.2370442602255929, -0.8838502475525971], [0.26825167739925176, -1.0000356087884643, -1.6899328087653036], [1.0985622412452019, 1.6547823676247506, 1.8220581766006159]]" pbc="F F F"
H        0.58692094       0.48362546       0.61123787
O        1.44202567       1.85837108       0.86228156
H        1.05819584       1.10108136       0.58988727
3
Properties=species:S:1:pos:R:3 REF_energy="_JSON [[1.0, 1.0, 1.0]]" REF_dipoles="_JSON [[0.39117164778159685, 0.13421832017107002, 0.874982276193797], [0.9310106988230167, 0.7890261272552878, -0.21397229424926884], [0.7069169874883946, 0.15113317429322573, 1.288760551812762]]" pbc="F F F"
H        0.71848150       0.63459833       1.89492072
O        1.91818489       0.65432270       0.51565990
H        0.37967070       1.43013933       0.79506410
3
Properties=species:S:1:pos:R:3 REF_energy="_JSON [[1.0, 1.0, 1.0]]" REF_dipoles="_JSON [[0.750075205960976, -1.161295261535772, 0.8814494642491109], [1.7385841953349654, -0.5344139047155991, -0.6937938351156767], [-1.1123857527743686, -0.4729537170338417, 0.43086714096173195]]" pbc="F F F"
H        1.41265672       0.78769483       1.61106336
O        0.23830407       0.74764683       1.70058159
H        1.58050279       0.63319667       1.12481974
3
Properties=species:S:1:pos:R:3 REF_energy="_JSON [[1.0, 1.0, 1.0]]" REF_dipoles="_JSON [[-0.0999844529132162, 1.1480876643161795, 1.262491643133273], [-0.7514178595233432, 0.16230797050623857, 0.8253246245501297], [-1.363446594706817, 0.18893535334841088, -0.005272199102516714]]" pbc="F F F"
H        1.93211639       1.16610851       0.74450997
O        0.16141238       1.06768850       1.75357392
H        0.12224392       1.75721073       1.28782064
3
Properties=species:S:1:pos:R:3 REF_energy="_JSON [[1.0, 1.0, 1.0]]" REF_dipoles="_JSON [[-0.9804736191188755, 1.8158327757068833, 1.8018306042691903], [0.7092339020596686, -0.6959602341153585, 0.6733930270436752], [-0.512621770887368, 0.3827636715639807, 0.2242845920560003]]" pbc="F F F"
H        1.09249515       1.85928261       0.19532270
O        1.00625115       1.02070278       1.38655098
H        1.99629476       1.50128224       0.43061556
3
Properties=species:S:1:pos:R:3 REF_energy="_JSON [[1.0, 1.0, 1.0]]" REF_dipoles="_JSON [[-0.04871058405467795, 0.9865788354701699, -0.1573479610433892], [-0.8330981426916775, 0.548963859190719, 0.8959736162989371], [0.5562149663279109, 1.289550060174737, -0.6948200835632717]]" pbc="F F F"
H        1.59698790       1.13214914       1.90187500
O        1.03138781       1.09299917       1.11151474
H        0.59705423       0.53865137       1.76842929
3
Properties=species:S:1:pos:R:3 REF_energy="_JSON [[1.0, 1.0, 1.0]]" REF_dipoles="_JSON [[0.8859502879792048, -1.3425938457612137, -1.514370176716802], [-1.2722109190689455, -1.0901610184872237, 0.47006734548481377], [-0.6231700504165749, -0.8498590413833721, 0.18308962028578296]]" pbc="F F F"
H        1.41786022       0.29502018       0.60174129
O        1.87585054       1.12137361       0.30279575
H        0.19800496       0.72209388       1.58743424
3
Properties=species:S:1:pos:R:3 REF_energy="_JSON [[1.0, 1.0, 1.0]]" REF_dipoles="_JSON [[-0.8526544111011289, -1.3715778919997106, 0.09867447521368855], [-0.04513173000643758, 0.4316504817585425, -0.33493880329984643], [1.5385293396320698, 0.48701606127389874, -0.9517613521364648]]" pbc="F F F"
H        0.61756577       0.57631394       1.05194128
O        1.66863507       0.93971797       1.69556496
H        0.71058530       0.87874677       1.37994368
3
Properties=species:S:1:pos:R:3 REF_energy="_JSON [[1.0, 1.0, 1.0]]" REF_dipoles="_JSON [[1.1576922049288887, 0.6455505223835233, 0.1758652909349131], [1.1236815250619494, 0.5814434853502184, -1.3589948974762887], [0.18523482497713722, -0.010632935184140681, 0.2766623551949876]]" pbc="F F F"
H        1.82121593       0.14525789       0.97737203
O        0.95646915       1.15425955       0.54950941
H        0.28246604       0.42794181       0.79280090
3
Properties=species:S:1:pos:R:3 REF_energy="_JSON [[1.0, 1.0, 1.0]]" REF_dipoles="_JSON [[-2.7901095072460222, 0.8562484973445723, -0.40930073966084485], [0.8331379208599832, -0.5031550456172361, -0.9519678642605301], [0.2568125515248625, 1.7575556654190068, -0.19418124402845846]]" pbc="F F F"
H        0.94424947       1.00304701       0.71041449
O        1.58330392       1.61775823       1.86599815
H        0.76655461       1.65438598       0.60787287
3
Properties=species:S:1:pos:R:3 REF_energy="_JSON [[1.0, 1.0, 1.0]]" REF_dipoles="_JSON [[-1.2459213385935664, -1.0195569628431094, 0.6411829112344466], [0.712479960591025, 2.0143935938832227, 1.6492175770003767], [-0.02353461493820588, -2.21168261648731, -0.9424555420197246]]" pbc="F F F"
H        0.68669775       1.50567619       0.65286549
O        1.88239854       0.74210002       0.02296709
H        0.13511659       0.02522527       0.86899354
3
Properties=species:S:1:pos:R:3 REF_energy="_JSON [[1.0, 1.0, 1.0]]" REF_dipoles="_JSON [[0.6265989687102013, 0.5639914087687874, 0.2793637285178042], [0.878548409308392, 0.9179910996655755, 0.08041285617619356], [0.4853211331012359, -0.5539726940765504, -0.5116387242248218]]" pbc="F F F"
H        1.85255353       0.26246437       0.92133557
O        0.61091314       1.19191788       1.28127674
H        1.31175588       1.75266245       1.34244218
3
Properties=species:S:1:pos:R:3 REF_energy="_JSON [[1.0, 1.0, 1.0]]" REF_dipoles="_JSON [[0.20114332991700445, 2.6607554525315797, -1.9650310851976258], [1.9674710022459325, 0.6222287307896661, 1.1584093029427565], [0.4836403541674916, 1.5129375137432146, -0.6886259380875003]]" pbc="F F F"
H        0.78776758       1.90888238       1.62936376
O        0.61758632       1.83620931       1.88834681
H        0.99876659       0.13108025       0.22302910
3
Properties=species:S:1:pos:R:3 REF_energy="_JSON [[1.0, 1.0, 1.0]]" REF_dipoles="_JSON [[-0.6659776069694652, 0.38987556519849426, 0.7616109511827306], [2.33270368257673, -1.1755877272413957, 0.5543664859531876], [-0.7778169465317518, 1.8261584905385153, 1.149615194736019]]" pbc="F F F"
H        0.61520474       0.60089111       1.60697524
O        0.80006903       0.62077432       0.69766370
H        0.93587326       0.03560470       0.51243225
3
Properties=species:S:1:pos:R:3 REF_energy="_JSON [[1.0, 1.0, 1.0]]" REF_dipoles="_JSON [[-0.21987628338627074, 0.3926287479267867, -0.2014138223925164], [-0.04094330526291923, -1.169914200722192, 0.09098217524698508], [0.928250730312928, -0.6643769388472796, -0.8289134187213694]]" pbc="F F F"
H        1.61952908       1.34536775       0.69816236
O        1.76665500       0.03949055       0.99040736
H        0.73646076       0.04929543       1.69841401
3
Properties=species:S:1:pos:R:3 REF_energy="_JSON [[1.0, 1.0, 1.0]]" REF_dipoles="_JSON [[0.07099483127075033, -0.7383217116994165, -0.3497457093116351], [-0.41544403251575807, 0.14995849223556382, 0.40854711574029895], [-2.0533496728737095, 0.9127389855157224, 1.0797272673282343]]" pbc="F F F"
H        1.62048290       1.18251830       0.13226688
O        1.80584524       1.49648171       1.02103364
H        0.47219964       0.02208459       1.75129997
3
Properties=species:S:1:pos:R:3 REF_energy="_JSON [[1.0, 1.0, 1.0]]" REF_dipoles="_JSON [[0.8540236180357555, 0.8402545868182651, -0.9831218970228055], [0.2970890403663026, -1.1165618705782117, 0.7505552654303421], [-0.8687181605891307, -0.910896383143375, 1.5446981014964423]]" pbc="F F F"
H        1.02583715       0.70634515       1.42118065
O        0.09859280       1.36694781       0.77785240
H        1.29279020       0.53954260       0.00635283
3
Properties=species:S:1:pos:R:3 REF_energy="_JSON [[1.0, 1.0, 1.0]]" REF_dipoles="_JSON [[1.3633823857836407, 0.6500857666677996, -0.9991320118765409], [-0.018421276969852438, 0.6153239402801636, 0.7790040095662817], [-0.677881482408628, 0.4021055594924916, -0.13554528366086147]]" pbc="F F F"
H        0.39170960       0.34722015       1.60792647
O        1.01072608       1.56966074       0.19552702
H        0.74270798       1.29814619       0.16616916
3
Properties=species:S:1:pos:R:3 REF_energy="_JSON [[1.0, 1.0, 1.0]]" REF_dipoles="_JSON [[0.12338067060845256, 1.5002808047399905, -0.22592898449515206], [1.060193190185143, 0.631404107813103, 1.4448181138718896], [0.4614272558971812, 1.7831248537307796, -0.6767454271532187]]" pbc="F F F"
H        0.15591953       1.81638922       0.43934222
O        0.27546785       0.19320837       1.31970556
H        0.68195957       1.28311304       1.85961972
3
Properties=species:S:1:pos:R:3 REF_energy="_JSON [[1.0, 1.0, 1.0]]" REF_dipoles="_JSON [[0.9020950311373365, 0.8790500416724792, -1.2795815750750221], [-1.2805635276783383, -0.23002450384443723, 0.5161333387113188], [-2.1328085341557537, 0.0718393014905574, -1.0499251220339774]]" pbc="F F F"
H        0.51711149       0.11837702       0.08870377
O        0.49140312       1.07953124       1.29932222
H        0.68859456       0.93225832       1.33591993
3
Properties=species:S:1:pos:R:3 REF_energy="_JSON [[1.0, 1.0, 1.0]]" REF_dipoles="_JSON [[1.6319775345905503, 1.8088458187091228, -1.3410990002607825], [0.17216569813140123, -0.028409086409099085, -1.5291960287297528], [-0.21092350118578385, -0.11809580817433349, 0.3915125010845375]]" pbc="F F F"
H        0.94786557       1.21317870       1.39691873
O        1.10906781       0.01523451       0.92872551
H        1.26036337       0.36314504       1.77279758
3
Properties=species:S:1:pos:R:3 REF_energy="_JSON [[1.0, 1.0, 1.0]]" REF_dipoles="_JSON [[1.1628898582802194, -0.4541112755639348, 0.0987690410564443], [-0.41548637815360495, -1.8868921581700917, -0.13334162993708074], [0.11928778195283816, 0.760993537586297, -1.4931107247591744]]" pbc="F F F"
H        1.18685676       1.09908237       0.36724689
O        1.40024755       0.95254023       1.54654820
H        1.97761626       0.03236619       0.14467178
3
Properties=species:S:1:pos:R:3 REF_energy="_JSON [[1.0, 1.0, 1.0]]" REF_dipoles="_JSON [[-1.5519905002270689, -0.34232691612861815, -0.8885964689212033], [0.47851970010086525, -0.7583858522238166, -1.4754162904841737], [-0.7769077688288197, -0.3231744869220586, 1.0052744631286994]]" pbc="F F F"
H        1.42241087       1.80421609       0.20614130
O        0.04833541       0.88613413       1.11225079
H        1.70273404       0.23114094       0.35404620
3
Properties=species:S:1:pos:R:3 REF_energy="_JSON [[1.0, 1.0, 1.0]]" REF_dipoles="_JSON [[-0.4381648884371065, -0.8679937878715912, 1.7670534591467828], [2.270849869210559, 0.51652179290383, 0.5962929362002567], [0.6738145659165229, -0.9855564437379005, 2.071320753721546]]" pbc="F F F"
H        0.57677183       0.70357056       0.12973064
O        0.62573059       1.40426621       0.00025715
H        0.56892965       0.69696180       1.00388715
3
Properties=species:S:1:pos:R:3 REF_energy="_JSON [[1.0, 1.0, 1.0]]" REF_dipoles="_JSON [[0.021848130239055533, -0.37125755883787964, -0.6954877200666048], [0.7420743723753579, -0.2352141100981959, -1.2712572431045916], [1.2982712148381295, -0.23328763971151423, -0.02561798148301541]]" pbc="F F F"
H        0.83431702       0.80440208       0.98585399
O        1.36910481       0.58901495       0.15896158
H        1.17220935       1.73361144       0.59068467
3
Properties=species:S:1:pos:R:3 REF_energy="_JSON [[1.0, 1.0, 1.0]]" REF_dipoles="_JSON [[0.571852872887447, 0.11632480993066507, -0.402343439902478], [3.1495010378727297, 0.44807945920938896, 0.4400353432367489], [-1.0320874281466696, 1.072917423917801, 0.15316972448553998]]" pbc="F F F"
H        1.44112761       0.05060902       0.59757238
O        0.19670151       0.27953885       0.21897319
H        0.44934509       1.66611738       0.41570210
3
Properties=species:S:1:pos:R:3 REF_energy="_JSON [[1.0, 1.0, 1.0]]" REF_dipoles="_JSON [[0.8926978294289231, -0.5243885820391463, -0.9267555847015085], [1.1510534035339652, 1.087176849839038, -0.8468717337964542], [-0.7478719354643567, 0.4688571490058925, 0.6960383509192326]]" pbc="F F F"
H        0.24225119       1.56536474       0.70739620
O        1.53386900       1.65694505       0.27764054
H        0.65906234       1.60536747       0.93156927
3
Properties=species:S:1:pos:R:3 REF_energy="_JSON [[1.0, 1.0, 1.0]]" REF_dipoles="_JSON [[1.9541940378260392, -0.6975845095274189, -0.9619737173842353], [-0.3841286637647572, 0.5425242330966813, -1.2760957367074561], [0.3990601694345996, -1.7725247177849706, 0.6521223527171505]]" pbc="F F F"
H        0.31086972       0.17774022       0.58100347
O        0.29657468       1.75502309       1.37456249
H        1.63432104       0.44677664       0.78970682
3
Properties=species:S:1:pos:R:3 REF_energy="_JSON [[1.0, 1.0, 1.0]]" REF_dipoles="_JSON [[-0.017938359124751238, -0.1963054074062368, 0.9905525228392646], [0.38294948692114444, -0.2943400227926117, -1.423866393149521], [0.7452468980404837, -0.8888937302938722, 0.21796332698217058]]" pbc="F F F"
H        1.88528890       1.89580866       1.26919972
O        0.11057534       0.72351260       0.27041664
H        0.27717000       0.17159621       0.78800609
3
Properties=species:S:1:pos:R:3 REF_energy="_JSON [[1.0, 1.0, 1.0]]" REF_dipoles="_JSON [[-0.1471585975940732, 3.1196335844395047, 1.2789740606281337], [-0.2693485153136834, 0.1816649314328664, -0.6427712778091365], [1.7557307633357577, -0.6113052704127118, -1.3808419966829972]]" pbc="F F F"
H        1.89443758       1.97881354       0.71741004
O        1.78388675       0.91806411       0.86806376
H        0.73532837       0.51861096       1.97373178
3
Properties=species:S:1:pos:R:3 REF_energy="_JSON [[1.0, 1.0, 1.0]]" REF_dipoles="_JSON [[0.9664716291432196, 0.854421953323148, -1.6221326703868328], [0.6628178272958286, -1.001842564910279, -0.9486906367152254], [0.4328970804869042, -0.3150410428304874, -1.0739131546107357]]" pbc="F F F"
H        0.19776267       1.29707763       0.75098733
O        1.99833561       1.84404159       1.67425494
H        1.70430903       1.96655392       1.24580160
3
Properties=species:S:1:pos:R:3 REF_energy="_JSON [[1.0, 1.0, 1.0]]" REF_dipoles="_JSON [[-1.0976426837167084, 0.22651814221686967, -1.6347154568925022], [0.8482560329892989, 0.7736750183925746, 0.2504972066110709], [-0.51390900214493, -0.4329989920952706, -0.5983269115961126]]" pbc="F F F"
H        1.42865562       0.51725097       1.71361069
O        1.42383090       0.50433128       0.94409517
H        1.97335332       1.35971833       1.48462682
3
Properties=species:S:1:pos:R:3 REF_energy="_JSON [[1.0, 1.0, 1.0]]" REF_dipoles="_JSON [[-0.13319028344003128, 0.8464459539262489, -0.5275602078766735], [0.8938853968828568, 0.6619378853684181, -0.19829787462913817], [-0.0027357436395434673, 1.281730748007359, 1.4440498603798162]]" pbc="F F F"
H        0.34529100       0.52345242       1.12853939
O        1.71336398       0.63980924       1.44992468
H        0.07390340       1.11765527       1.82087362
3
Properties=species:S:1:pos:R:3 REF_energy="_JSON [[1.0, 1.0, 1.0]]" REF_dipoles="_JSON [[1.0172314079880036, 0.6128569624209074, -0.40276668355097656], [-0.9124077182247664, -1.4702956861081822, 1.4240400887498874], [-0.7186127138157236, 0.7173181768383202, -0.057259038871314005]]" pbc="F F F"
H        0.38047142       0.62063190       0.44588037
O        0.91522713       0.92120205       1.06650988
H        1.99502269       1.16547202       0.39335418
3
Properties=species:S:1:pos:R:3 REF_energy="_JSON [[1.0, 1.0, 1.0]]" REF_dipoles="_JSON [[-0.45947621772593356, 0.17878607240830674, -0.9806565909137234], [-1.5048089155198383, -0.6833895843317259, 0.25435324551994004], [1.8829304367653965, -1.182672550127213, 0.9667713057414417]]" pbc="F F F"
H        0.84396101       1.25913375       0.65152044
O        1.78634964       1.44906667       0.38054971
H        0.52839776       0.54925504       0.37429811
3
Properties=species:S:1:pos:R:3 REF_energy="_JSON [[1.0, 1.0, 1.0]]" REF_dipoles="_JSON [[1.8769736209312324, 0.7064510450235465, 0.6846627369548498], [-0.18319380856446127, 0.191720085365517, 0.637469626950752], [0.8653439012867761, 1.612705104564881, -1.6372248629845298]]" pbc="F F F"
H        1.61415791       1.36292391       0.78197091
O        1.97874346       1.57327475       0.24367842
H        0.55549959       1.91211796       0.58340998
3
Properties=species:S:1:pos:R:3 REF_energy="_JSON [[1.0, 1.0, 1.0]]" REF_dipoles="_JSON [[-1.4007888711148868, 0.15701137914016952, -0.10462996318515257], [0.5587401745349941, 2.189905475715005, -1.1998170411342284], [0.5318843851061315, -0.015541491117658414, 1.4128614836886646]]" pbc="F F F"
H        1.69472626       0.47818398       1.85172243
O        1.69122621       1.92833008       0.97248291
H        0.83678264       1.61991856       0.51121297
3
Properties=species:S:1:pos:R:3 REF_energy="_JSON [[1.0, 1.0, 1.0]]" REF_dipoles="_JSON [[-0.9890888055893773, 0.7281184025288893, 0.22837323079782934], [0.616081783655903, 0.8482866243996423, 0.5388473909628066], [0.5875963530915232, 1.2726948941303704, 0.12056987825335683]]" pbc="F F F"
H        1.20150512       1.44726136       1.11475921
O        0.59510037       0.81739817       1.50648546
H        0.74457866       1.70007454       1.49721603
3
Properties=species:S:1:pos:R:3 REF_energy="_JSON [[1.0, 1.0, 1.0]]" REF_dipoles="_JSON [[-1.2755290099544043, 0.5327477496300381, 0.47875914787005713], [1.144736905787512, -1.4752468101859453, -1.8158663013337424], [1.6080970921127478, -0.6869074784611398, -0.5936302881122968]]" pbc="F F F"
H        0.39803250       1.27303068       1.42332837
O        1.63177681       0.17896215       0.52968309
H        0.91165282       1.25243970       1.52224317
3
Properties=species:S:1:pos:R:3 REF_energy="_JSON [[1.0, 1.0, 1.0]]" REF_dipoles="_JSON [[-0.013730043468082586, 1.2353301361000126, 0.5247874279246871], [-1.4971999140918433, -1.493060736791671, -0.7700947203155946], [-0.4127766671842651, -0.2222800738007271, -1.353441916973733]]" pbc="F F F"
H        1.40208238       1.08090673       0.88750846
O        1.36720345       0.67663281       0.02374630
H        1.27635648       1.89712055       0.23721842
3
Properties=species:S:1:pos:R:3 REF_energy="_JSON [[1.0, 1.0, 1.0]]" REF_dipoles="_JSON [[-0.7566864041524887, -0.6438059973903848, 0.999983672190058], [-0.18965929876599324, -0.4229003853871586, -0.1979705385296005], [-0.624672645025589, -0.8505023786620479, -0.8423646555662236]]" pbc="F F F"
H        1.94157281       0.29195867       0.15338774
O        1.89270088       0.90419536       1.32201806
H        0.69755526       0.56480732       0.39943193
3
Properties=species:S:1:pos:R:3 REF_energy="_JSON [[1.0, 1.0, 1.0]]" REF_dipoles="_JSON [[-0.07463550804611137, 0.457199881620638, 0.9241105383689472], [-0.7111132780049013, -0.5787006769916924, 0.32361188148212944], [-1.0258182862018845, 0.9060678653816824, -0.21675647441272128]]" pbc="F F F"
H        0.95110469       1.12488820       1.74586422
O        0.39212351       1.56814691       1.22012598
H        0.79240418       1.42931540       1.91565216
3
Properties=species:S:1:pos:R:3 REF_energy="_JSON [[1.0, 1.0, 1.0]]" REF_dipoles="_JSON [[0.21104284458337688, 1.5875824007494264, -0.07906556367732066], [1.077763796610827, -0.2350113823473638, 0.3139809954235157], [0.3831029130519674, 1.1334911404817782, 1.8049964313765803]]" pbc="F F F"
H        1.99522130       0.59443945       1.69217853
O        0.82089192       0.01140625       1.45792397
H        1.04467293       1.63160636       1.87492457
3
Properties=species:S:1:pos:R:3 REF_energy="_JSON [[1.0, 1.0, 1.0]]" REF_dipoles="_JSON [[-0.9322299209355915, -1.243807502372522, -0.7011023731549124], [1.411639617085901, 0.01388538636741464, 0.9248819028633605], [-0.31386990201870096, -0.16339407959644436, -0.46148709875076893]]" pbc="F F F"
H        0.14142630       0.39087548       1.42742718
O        1.42250227       1.39454408       0.28641176
H        0.50309969       0.83252400       0.84023457
3
Properties=species:S:1:pos:R:3 REF_energy="_JSON [[1.0, 1.0, 1.0]]" REF_dipoles="_JSON [[-0.8531832468196764, 0.7242030833160117, -1.1484868149828367], [0.9248643718299085, 0.180074392727463, 0.7995213360568393], [0.3036807800901671, 0.9009341807085716, 0.132034242677119]]" pbc="F F F"
H        0.63207003       1.69794474       0.45767635
O        1.18768125       1.13036680       1.24085787
H        0.07475302       1.13679430       0.33257991
3
Properties=species:S:1:pos:R:3 REF_energy="_JSON [[1.0, 1.0, 1.0]]" REF_dipoles="_JSON [[0.3323683664656181, 0.8292302356655777, 0.5417406526803273], [0.9238546283913407, -1.65702378575309, -0.2692631786243875], [2.5222470821762912, -0.38129002141685514, 2.2110473960100476]]" pbc="F F F"
H        1.45085687       1.89949820       0.14234910
O        1.84004350       0.65445817       1.34137138
H        0.61372503       1.58746402       1.66288390
3
Properties=species:S:1:pos:R:3 REF_energy="_JSON [[1.0, 1.0, 1.0]]" REF_dipoles="_JSON [[-1.266635742844364, -0.4427333885269701, 0.24757217373735216], [1.1654342015016503, 2.3877376359243963, -0.8058160427168993], [0.614080896169521, 1.2184713630782904, 1.4709459539968]]" pbc="F F F"
H        0.46871809       0.08346243       0.12181526
O        1.58324676       0.25671827       1.05610184
H        0.60350129       0.20946321       1.40930062
3
Properties=species:S:1:pos:R:3 REF_energy="_JSON [[1.0, 1.0, 1.0]]" REF_dipoles="_JSON [[-1.2035890405216825, 0.008824605740367331, 0.8653500679762575], [-0.9649038221612295, -1.0034992832731222, -1.2619235953612247], [1.7712663511006865, 0.6700042445860025, -0.2968511874729401]]" pbc="F F F"
H        1.88156119       0.91612763       0.22123085
O        0.63185490       1.77243568       0.77786048
H        0.31070273       0.75129955       0.42868813
3
Properties=species:S:1:pos:R:3 REF_energy="_JSON [[1.0, 1.0, 1.0]]" REF_dipoles="_JSON [[1.1197654906399903, 0.05935129631084462, 1.6686587417587648], [0.7973994481933665, -0.5488384909514785, 0.2213553106469007], [-0.19839713967589404, 1.248497444755328, -2.257490031206284]]" pbc="F F F"
H        0.74838733       0.85174713       1.90564148
O        1.04168122       1.81028454       1.36481893
H        0.50786692       1.92934850       1.90809666
3
Properties=species:S:1:pos:R:3 REF_energy="_JSON [[1.0, 1.0, 1.0]]" REF_dipoles="_JSON [[0.8614157982182238, -0.6871897395394475, 2.1984564751091806], [-0.8119388678476538, 0.054980213498250954, -0.5539941243241685], [0.6923046864837155, 0.2353252750438182, -0.45859425475700644]]" pbc="F F F"
H        0.19004906       0.94782406       1.74796458
O        0.83689911       0.95645806       1.02930787
H        1.27247139       1.93209550       0.83721714
3
Properties=species:S:1:pos:R:3 REF_energy="_JSON [[1.0, 1.0, 1.0]]" REF_dipoles="_JSON [[-0.7140936827527075, 0.05522460470164497, 0.3646252655511299], [-1.705800054784319, 0.08733833704306691, -0.17234820881202487], [0.1598313386696367, 0.37683454487428103, -1.4477095893021006]]" pbc="F F F"
H        0.07007138       0.50594806       0.35521758
O        0.29289461       1.81541452       0.70935192
H        1.65454969       0.50276982       1.64419701
3
Properties=species:S:1:pos:R:3 REF_energy="_JSON [[1.0, 1.0, 1.0]]" REF_dipoles="_JSON [[0.14715882041333522, 0.9671011181079757, 1.489881142784795], [-0.1416887139452247, 0.04276353184686924, 0.786027117357073], [-1.2863358831379026, 1.4652734606748508, 1.306008363473372]]" pbc="F F F"
H        0.30806168       0.19979858       1.71118372
O        1.65618254       0.54133786       1.75591451
H        0.25754115       0.76795514       1.35591996
3
Properties=species:S:1:pos:R:3 REF_energy="_JSON [[1.0, 1.0, 1.0]]" REF_dipoles="_JSON [[-0.24730927336078123, 0.542545952130798, -0.14175693279653634], [-0.9416552725384083, -1.3262646252408465, 0.5833650029110181], [-0.09202330196724767, 1.3107009187275103, 0.9270752968050503]]" pbc="F F F"
H        1.12470290       1.08056694       1.31279073
O        0.22123043       1.81083302       1.56296711
H        0.05993006       0.78022777       1.27596233
3
Properties=species:S:1:pos:R:3 REF_energy="_JSON [[1.0, 1.0, 1.0]]" REF_dipoles="_JSON [[-0.17517705242217885, 0.35685644416380313, 1.2530175142738054], [-0.7427211578661626, 0.8144408907432986, -0.8198801784976241], [0.723486023435379, 0.16390404318265975, 0.609376964352909]]" pbc="F F F"
H        1.77469522       0.93490574       0.11636853
O        0.66991334       0.23624797       1.58394986
H        0.03029541       0.92475309       0.81123049
3
Properties=species:S:1:pos:R:3 REF_energy="_JSON [[1.0, 1.0, 1.0]]" REF_dipoles="_JSON [[0.31367330251065906, 0.6722877399710157, 0.6141932927707952], [-0.47021241714225054, 1.534212735896888, 0.9051339337389988], [1.0065568845527801, 0.5918786630146722, -0.7428227027200411]]" pbc="F F F"
H        0.97406615       0.50253286       0.44068333
O        0.64850602       0.01137738       1.69191217
H        0.53860882       1.41819262       0.91238890
3
Properties=species:S:1:pos:R:3 REF_energy="_JSON [[1.0, 1.0, 1.0]]" REF_dipoles="_JSON [[0.4648831773214036, 2.0244752601967546, 0.0901834892971458], [-0.5763393759462522, 1.882635557356639, -0.09356163289489644], [1.1664943544349278, -0.01782617230099767, 0.643616634292637]]" pbc="F F F"
H        1.94204490       0.59440299       0.07360890
O        1.24679163       1.01078729       1.12095440
H        0.20237356       1.16941947       0.57176981
3
Properties=species:S:1:pos:R:3 REF_energy="_JSON [[1.0, 1.0, 1.0]]" REF_dipoles="_JSON [[-1.3435550454262806, 1.2526982298957727, 0.73689538225809], [-1.1767150042466756, -1.8111491279291565, -0.08397032086958212], [-1.7186284522848, -0.48912034703965357, -0.8432302090752103]]" pbc="F F F"
H        0.29216887       1.93741773       0.23607658
O        0.56559053       1.83607875       1.65030493
H        1.54674261       1.59197388       1.16420629
3
Properties=species:S:1:pos:R:3 REF_energy="_JSON [[1.0, 1.0, 1.0]]" REF_dipoles="_JSON [[0.36080304131633695, 0.6263611286120604, 0.7880938064831233], [-1.375250424954046, 0.3197014374017519, -0.3663273856312313], [1.279421520937862, 1.7728080344936652, -0.9557178681049044]]" pbc="F F F"
H        1.75545072       1.77840401       1.68634918
O        1.16655970       0.65676288       1.67617983
H        0.54407661       1.13980907       0.27209211
3
Properties=species:S:1:pos:R:3 REF_energy="_JSON [[1.0, 1.0, 1.0]]" REF_dipoles="_JSON [[0.6025296850007704, -0.2603673790157314, 0.425986724351418], [-0.2435012319645761, -0.2674990556844275, -0.8351872068673174], [-2.1044101060416476, 0.6190523380487821, 0.681615476123629]]" pbc="F F F"
H        0.00248458       1.74045865       1.39597309
O        0.32165415       1.11845604       0.72026482
H        1.06069942       0.23420840       1.83822541
3
Properties=species:S:1:pos:R:3 REF_energy="_JSON [[1.0, 1.0, 1.0]]" REF_dipoles="_JSON [[0.3526990640535003, -1.3993749449042967, -0.4636627268694136], [0.7416574015303932, -0.006981103865633956, 0.288355394753835], [-0.8978544437512755, -2.042481913500017, 0.7232268530316319]]" pbc="F F F"
H        0.21066570       1.62267983       1.01768128
O        0.61405274       0.49080410       0.23195777
H        1.83626510       0.17946125       1.82304173
3
Properties=species:S:1:pos:R:3 REF_energy="_JSON [[1.0, 1.0, 1.0]]" REF_dipoles="_JSON [[-0.15756705289365916, -1.3815910750901028, 2.0285641537414256], [0.5583049729749281, -1.980327626537509, -0.058733810310424454], [1.891598623742353, -0.2046795691075597, 0.5832944774648174]]" pbc="F F F"
H        1.40398377       0.22518411       1.88217244
O        0.23371530       0.52203503       1.02690076
H        0.45241481       0.09027673       1.86830336
3
Properties=species:S:1:pos:R:3 REF_energy="_JSON [[1.0, 1.0, 1.0]]" REF_dipoles="_JSON [[-1.1532245817506228, 0.8940736060743563, 0.6275711311108557], [0.05636177816909949, -0.10067500887070925, 1.7049066313736023], [-0.987574920482951, 0.6825074721496411, -0.5514355912190404]]" pbc="F F F"
H        1.99892618       1.28289692       0.08105719
O        0.78599029       0.71731323       1.20971672
H        1.02169407       0.86298575       1.19536339
3
Properties=species:S:1:pos:R:3 REF_energy="_JSON [[1.0, 1.0, 1.0]]" REF_dipoles="_JSON [[-2.862919506327551, 0.32983160607362394, -1.7198664870337728], [-0.6031752343857911, 0.32699556129468144, -0.05282888253530997], [-0.27572746078381866, -1.2045052785531498, -0.6320661498077011]]" pbc="F F F"
H        0.06639487       0.10681549       1.92456896
O        1.90926639       0.44400526       0.56374084
H        0.78011724       0.83387792       1.52756025
3
Properties=species:S:1:pos:R:3 REF_energy="_JSON [[1.0, 1.0, 1.0]]" REF_dipoles="_JSON [[-1.1299961844300397, -1.122475874868559, -0.2018240330717376], [1.3775634002428587, 0.9534512486316364, 0.7349024124874535], [1.5680998832546826, -1.9955967145156985, -1.04812720678527]]" pbc="F F F"
H        1.43231135       0.71086197       1.99077416
O        1.86510628       1.90969481       1.07672390
H        0.34440015       0.37362710       0.61593203
3
Properties=species:S:1:pos:R:3 REF_energy="_JSON [[1.0, 1.0, 1.0]]" REF_dipoles="_JSON [[-1.181521812895001, 1.77478208061711, 0.9856876012349662], [1.6802465327453366, -0.2881992025738462, 0.6899326288727621], [-0.978501999028279, -1.5818121231756836, 1.5164491593981293]]" pbc="F F F"
H        0.72760075       1.27722322       0.96826513
O        1.89072516       1.41018863       1.34272303
H        0.57799761       0.10597429       1.37587161
3
Properties=species:S:1:pos:R:3 REF_energy="_JSON [[1.0, 1.0, 1.0]]" REF_dipoles="_JSON [[-1.9437422362170027, 0.8954774113138994, -0.7003086124317075], [1.1851222522321325, -0.33656556456863707, -0.5584439028391399], [-0.07671887783401721, -0.172484791370606, -0.5332500381287634]]" pbc="F F F"
H        1.45749318       0.78656790       0.70579647
O        1.66824932       1.28741050       0.50746177
H        0.25984935       1.19069438       1.25600871
3
Properties=species:S:1:pos:R:3 REF_energy="_JSON [[1.0, 1.0, 1.0]]" REF_dipoles="_JSON [[0.6531035365164829, 1.871643586507281, -0.2481147208138741], [-1.421923957582777, 0.30642736352545724, 0.22321429256985637], [-0.8856690712442794, 0.040167752607980695, 0.4041457587891756]]" pbc="F F F"
H        1.53165937       0.29202978       1.26670336
O        0.19473304       0.55357147       1.71842166
H        1.87535234       0.92438487       1.77056070
3
Properties=species:S:1:pos:R:3 REF_energy="_JSON [[1.0, 1.0, 1.0]]" REF_dipoles="_JSON [[-2.3129188549050634, 1.180884235083565, -1.202346053760638], [-0.6990873989397602, -0.42621041160902245, 0.0800692773990691], [-0.028864769063504714, -0.7788792352294346, -0.38920378332173877]]" pbc="F F F"
H        0.09821084       1.71747754       0.63970956
O        1.06993337       0.74423251       0.44429083
H        0.92167358       1.01305287       1.64855032
3
Properties=species:S:1:pos:R:3 REF_energy="_JSON [[1.0, 1.0, 1.0]]" REF_dipoles="_JSON [[0.4453473035499542, -0.1282352622888735, 0.5197393772395522], [0.42139157051042114, -0.15454150875098502, -0.701504568720442], [-0.9582394956273792, 2.4695214311033706, 1.30440162767788]]" pbc="F F F"
H        1.36456999       0.74831727       1.81761768
O        0.52182520       1.65490524       1.30820898
H        0.04352447       1.80522802       1.73672220
3
Properties=species:S:1:pos:R:3 REF_energy="_JSON [[1.0, 1.0, 1.0]]" REF_dipoles="_JSON [[1.1890468740594835, -0.5552095655441573, -0.32497234988468027], [0.23101523310791477, 0.650707594577037, 0.4996998905618445], [1.6566672477712552, -0.021024173181545248, 0.2087456399255932]]" pbc="F F F"
H        1.08152414       0.70067287       1.26128127
O        0.79541536       0.51216800       0.21373063
H        0.30891615       1.79233161       1.15617284
3
Properties=species:S:1:pos:R:3 REF_energy="_JSON [[1.0, 1.0, 1.0]]" REF_dipoles="_JSON [[-0.4981882506445747, -0.4599453011391805, -0.8824369410460385], [0.24642647268749568, 1.4913065036009165, -1.4460310910184206], [-0.5117926477003177, 0.4291590527152117, -0.5244535465447288]]" pbc="F F F"
H        0.28560035       1.58470722       1.79358691
O        0.00199780       1.77835201       1.21935264
H        1.67238622       0.51739512       1.83970209
3
Properties=species:S:1:pos:R:3 REF_energy="_JSON [[1.0, 1.0, 1.0]]" REF_dipoles="_JSON [[-0.09161682443570526, -0.9054304710865374, 0.834916675842849], [-2.193820618837301, 2.1414551416910075, 1.5899874075187215], [-0.03905923083755651, -0.058472619290064934, -0.7791504289232433]]" pbc="F F F"
H        1.64314816       0.32817928       1.87814260
O        1.85690811       1.93941555       1.87134004
H        0.26536408       0.71943372       0.94352056
3
Properties=species:S:1:pos:R:3 REF_energy="_JSON [[1.0, 1.0, 1.0]]" REF_dipoles="_JSON [[0.9126098105357249, -1.431687886154417, 1.3557714584743001], [-0.20920372470010326, 0.17314411206995625, 0.44054262559709717], [-0.5160176810821525, -0.5207709833889329, -1.1154101287332574]]" pbc="F F F"
H        0.33425388       0.26622787       1.00889950
O        0.00849230       0.85242839       1.35500112
H        0.85878379       0.94908301       0.59019744
3
Properties=species:S:1:pos:R:3 REF_energy="_JSON [[1.0, 1.0, 1.0]]" REF_dipoles="_JSON [[0.23546475479657103, -0.9644534393079408, -0.5387866806584295], [1.0971804972963206, -0.8440686068981879, -1.2507098812746678], [0.9702142620849038, 1.1255236795638601, 0.07363340095443033]]" pbc="F F F"
H        1.64753476       1.68171137       0.94976152
O        1.63056666       0.98347282       1.96700099
H        0.22487914       0.22818688       1.78072162
3
Properties=species:S:1:pos:R:3 REF_energy="_JSON [[1.0, 1.0, 1.0]]" REF_dipoles="_JSON [[1.1666522451354182, 1.3619314125686373, -0.22805712429126204], [0.500550519245708, 0.26216899734747495, -0.8419635897416504], [0.07821020341513588, -0.6340539144975269, -0.5371161827324548]]" pbc="F F F"
H        1.70515303       1.81783339       0.66302333
O        0.06838605       0.67572757       0.65005524
H        0.43714804       1.28084338       1.95171574
3
Properties=species:S:1:pos:R:3 REF_energy="_JSON [[1.0, 1.0, 1.0]]" REF_dipoles="_JSON [[0.5242438023025213, -0.08640776656181438, -0.22311115819131325], [-2.0311110958468612, 0.52808914463979, 0.7449600264489479], [0.7993059901670051, 0.0428740783276555, 1.2347216063625897]]" pbc="F F F"
H        1.65621202       1.92583790       0.48231181
O        1.09095349       0.52801207       1.01648082
H        1.33035284       1.53050186       1.96537934
3
Properties=species:S:1:pos:R:3 REF_energy="_JSON [[1.0, 1.0, 1.0]]" REF_dipoles="_JSON [[-0.22606981039707572, 1.4215113050620956, 1.4359919705007214], [1.654618488576026, 0.27849520670074784, -0.16438284269595457], [-0.7178118140860621, 1.7170569454092235, 0.7652161379162675]]" pbc="F F F"
H        1.80475077       0.54550108       0.89211311
O        1.19709513       0.28181420       1.71225733
H        1.05708219       1.94215467       0.12480971
3
Properties=species:S:1:pos:R:3 REF_energy="_JSON [[1.0, 1.0, 1.0]]" REF_dipoles="_JSON [[-0.8361603935273619, 2.138841759049939, -0.9709881048484739], [-1.4654587773223267, -2.200413197363475, -1.2162869883709433], [-1.288461999158497, -0.4987711157510508, -0.45398840813836483]]" pbc="F F F"
H        0.49114792       1.80050940       0.07251431
O        0.53981998       0.20066035       1.81229440
H        1.41133008       1.47167703       1.13250067
3
Properties=species:S:1:pos:R:3 REF_energy="_JSON [[1.0, 1.0, 1.0]]" REF_dipoles="_JSON [[-1.1034077488832816, 1.0517635487781867, -1.4614517315618893], [0.0973553355714193, -0.1542501157074171, -0.03171680923114234], [-0.42389618859138967, 0.5868850528284361, 0.6134192136255888]]" pbc="F F F"
H        0.03373049       0.03747636       0.08643231
O        1.13160133       0.01674635       1.45187383
H        1.33418630       1.52828376       1.45293624
3
Properties=species:S:1:pos:R:3 REF_energy="_JSON [[1.0, 1.0, 1.0]]" REF_dipoles="_JSON [[-1.2354522533809358, -0.7709632524863724, -0.060076452157932315], [-1.034313456385128, -0.7296351145476998, -0.4147643357780673], [0.12328979933846643, 0.31633414732776943, 1.4522784456227773]]" pbc="F F F"
H        1.72317759       1.80405315       1.69278645
O        1.46918860       0.81615385       0.51397335
H        1.62693275       0.41982242       0.63436828
3
Properties=species:S:1:pos:R:3 REF_energy="_JSON [[1.0, 1.0, 1.0]]" REF_dipoles="_JSON [[1.3630111340705091, 0.6532037579624482, -0.01094911959585459], [-2.236487087926752, -0.4616652034010877, 0.21189152123325397], [0.1561874146118882, -0.1836817243440505, -0.6199761317640097]]" pbc="F F F"
H        1.88264705       0.10142816       1.47930198
O        0.17497427       0.40344186       1.32489690
H        1.00592984       1.40167571       1.90708739
3
Properties=species:S:1:pos:R:3 REF_energy="_JSON [[1.0, 1.0, 1.0]]" REF_dipoles="_JSON [[-0.39127056061104204, -1.6777999670091237, -0.7363923621418905], [-0.4972673272693366, 0.734878921032515, 0.6622917085383263], [0.1668588137449384, 1.5002462411719697, 0.17455437689881756]]" pbc="F F F"
H        1.71218306       1.03249267       0.27887708
O        0.45717178       0.37534025       1.87945520
H        0.17830525       0.41052052       0.78983967
3
Properties=species:S:1:pos:R:3 REF_energy="_JSON [[1.0, 1.0, 1.0]]" REF_dipoles="_JSON [[-0.46001323870724087, -0.9506000877815208, 0.9542481803315314], [-1.0619216830091034, -0.8837538689946651, -0.5220649013625994], [0.04354084030553758, 0.2501597104015365, 0.5623707993473682]]" pbc="F F F"
H        0.53866240       0.85567512       1.82982259
O        0.29440291       1.61399246       0.89571024
H        0.84503770       1.20273565       1.33848586
3
Properties=species:S:1:pos:R:3 REF_energy="_JSON [[1.0, 1.0, 1.0]]" REF_dipoles="_JSON [[-0.6110989621889914, -0.20115635780877852, -0.6964162589589954], [0.2518685807856277, 0.4150346977519524, -1.027622544072435], [-0.7585217848609468, 0.5699127716305471, 1.0668015433057134]]" pbc="F F F"
H        0.32753160       0.39487472       0.22067831
O        1.00830785       1.75478011       0.96162166
H        1.90504503       0.69672735       0.72149862
3
Properties=species:S:1:pos:R:3 REF_energy="_JSON [[1.0, 1.0, 1.0]]" REF_dipoles="_JSON [[-0.4562747251994534, 1.3826193141510992, -0.10830025563631872], [-0.19874533996877297, 0.6830670367734324, 0.09568670956681916], [-0.3678217827218252, 1.818454598884755, 1.9012968249449667]]" pbc="F F F"
H        1.07508326       0.40496450       1.46730613
O        1.64594069       1.04891495       1.10511124
H        0.78983160       1.44436167       0.90851018
3
Properties=species:S:1:pos:R:3 REF_energy="_JSON [[1.0, 1.0, 1.0]]" REF_dipoles="_JSON [[-1.992139610308662, 0.33668125170021307, -0.05377081452586242], [0.028002697006848192, 1.2588405668528833, 0.04247603101229119], [0.27854675055314254, 0.37432896568512775, 0.16642316249804123]]" pbc="F F F"
H        0.97875983       1.79830947       0.16739351
O        0.82734468       0.27200261       1.06565698
H        0.63499377       0.17519640       0.68080394
3
Properties=species:S:1:pos:R:3 REF_energy="_JSON [[1.0, 1.0, 1.0]]" REF_dipoles="_JSON [[-0.7003679690761475, 2.349810037165473, 1.6234951673472893], [0.9971950743132032, -0.30788654639281116, 0.04695676357024112], [-0.9143344735238212, -0.07083238887385147, 0.09875374978425841]]" pbc="F F F"
H        0.48225808       0.41255372       0.98053484
O        1.39324739       0.66472219       1.99453652
H        1.49109954       1.91590081       0.69787751
3
Properties=species:S:1:pos:R:3 REF_energy="_JSON [[1.0, 1.0, 1.0]]" REF_dipoles="_JSON [[0.28776360389755723, -0.7688498099662495, -1.9829139609328361], [0.5666369961690614, 1.0503936158458238, -1.8127702970225823], [-0.7111735312362177, -0.5112827360525998, -0.5571496295563142]]" pbc="F F F"
H        0.38024326       0.05190735       1.49037160
O        1.93327542       1.07833132       0.10298077
H        1.43816961       0.99640938       1.17822250
3
Properties=species:S:1:pos:R:3 REF_energy="_JSON [[1.0, 1.0, 1.0]]" REF_dipoles="_JSON [[-0.46123999630186624, 1.7301936615234697, 0.06909162166940783], [0.9033522825729428, -0.9432468121375845, -0.3002746566058902], [-2.7757093124380483, 0.05402983345176377, 0.9039069710469224]]" pbc="F F F"
H        1.21069721       0.22923827       0.48530239
O        1.32332220       0.47968985       1.40198483
H        0.18507040       1.29850431       1.28667194
3
Properties=species:S:1:pos:R:3 REF_energy="_JSON [[1.0, 1.0, 1.0]]" REF_dipoles="_JSON [[1.4879096636114137, 0.20934090935721691, 0.02964554364499016], [-0.006525628729030519, 0.08028946032055481, -0.5435697599548754], [-0.927532536969101, 0.04488355104765318, 0.8844099543758409]]" pbc="F F F"
H        1.55805476       1.65018029       0.71263724
O        0.98036418       0.19143499       0.11638455
H        1.56596016       1.30602219       1.96413799
3
Properties=species:S:1:pos:R:3 REF_energy="_JSON [[1.0, 1.0, 1.0]]" REF_dipoles="_JSON [[0.5057443481443209, 3.4958729475742194, 0.6136430116354428], [1.5800407403686187, 0.9402719626336453, 1.8139741141685626], [0.8320079972048666, 0.5270961127919878, 1.3253226384238141]]" pbc="F F F"
H        1.89138263       0.80704471       0.23246017
O        0.94362853       1.39152984       1.87518979
H        1.76195715       1.31895915       1.51163983
3
Properties=species:S:1:pos:R:3 REF_energy="_JSON [[1.0, 1.0, 1.0]]" REF_dipoles="_JSON [[0.10815182404927583, -1.0271920387891094, 0.26391714413234274], [-1.4581515794544355, -0.27811583590933747, -0.5776316422981542], [0.1615755139244361, 2.3898317815612105, 0.06325939245331744]]" pbc="F F F"
H        1.33931623       1.18704908       0.32485391
O        0.91311285       1.43905198       0.26816536
H        0.91645060       1.43132844       1.03711612
3
Properties=species:S:1:pos:R:3 REF_energy="_JSON [[1.0, 1.0, 1.0]]" REF_dipoles="_JSON [[-1.107520261126845, 0.8175189348951969, -1.5324237733698731], [-0.33368658289805997, -1.54425192647399, -0.5736249136272298], [-0.7093700534025726, 1.8552463253278335, 0.04172074373603742]]" pbc="F F F"
H        1.94976939       0.40403573       0.09862211
O        1.52934819       1.69440263       0.73539479
H        0.78569736       0.92960774       0.25528007
3
Properties=species:S:1:pos:R:3 REF_energy="_JSON [[1.0, 1.0, 1.0]]" REF_dipoles="_JSON [[1.8733646116179865, -1.1375562311635508, -0.17338154715345408], [1.5740068315187155, 0.4854532546943762, -0.5408918856297453], [-0.04613992604271514, -2.293630102600249, -0.3755465653350347]]" pbc="F F F"
H        0.98073506       1.99261367       1.76126725
O        0.43909047       0.58142703       1.05935361
H        0.44741372       1.85968298       0.21598187
3
Properties=species:S:1:pos:R:3 REF_energy="_JSON [[1.0, 1.0, 1.0]]" REF_dipoles="_JSON [[0.3581523811984765, -0.33511941854889693, 1.3273345158083523], [1.0056424502181083, 0.7263140795557137, 0.621741762832589], [-0.05463481779188836, 0.3945205805611847, 1.1947837309683247]]" pbc="F F F"
H        0.53312800       0.63054662       0.19456745
O        1.38028940       1.93559489       0.56951577
H        0.04855245       1.93126556       1.88833057
3
Properties=species:S:1:pos:R:3 REF_energy="_JSON [[1.0, 1.0, 1.0]]" REF_dipoles="_JSON [[0.28816419739223864, -1.2751944460836302, -1.1080583517213691], [-0.8957503083992633, -0.9251630609154037, 1.1057898673594828], [-0.14667670928104937, -0.7668479754714509, 0.5174382086725833]]" pbc="F F F"
H        0.72956935       1.61269807       0.78965392
O        1.56935308       1.44520719       1.13515502
H        0.39055763       0.09174268       0.36963457
3
Properties=species:S:1:pos:R:3 REF_energy="_JSON [[1.0, 1.0, 1.0]]" REF_dipoles="_JSON [[2.0282076741238426, -0.007330039362120177, 0.6863636751548352], [-0.2790712943701231, 0.7926512587463146, 0.6726415950012185], [-1.9465298309020103, -1.0685144405803666, 1.5367735129026128]]" pbc="F F F"
H        1.39104959       0.31263262       0.21962813
O        1.37999979       1.52645560       1.03014172
H        1.91413334       1.24871229       1.90521493
3
Properties=species:S:1:pos:R:3 REF_energy="_JSON [[1.0, 1.0, 1.0]]" REF_dipoles="_JSON [[0.01945162056260839, 0.14817594263549688, 1.026049090672923], [-0.736322015208211, -0.43819814987396116, -0.47628115873754506], [0.9961108680656624, 0.8336849203324145, -0.6653898009775537]]" pbc="F F F"
H        1.29115663       0.18733570       1.69818814
O        0.74456891       1.71557548       1.91025418
H        1.26696057       0.09628255       0.41624904
3
Properties=species:S:1:pos:R:3 REF_energy="_JSON [[1.0, 1.0, 1.0]]" REF_dipoles="_JSON [[-0.6689093866716873, 1.6739291161229775, -0.0980109236513203], [0.03314665142996331, -0.02426488622375517, -0.44534425470464617], [-0.9654318812939561, -0.39042911332604485, 0.7341472945844698]]" pbc="F F F"
H        0.71497651       1.89683987       0.06128514
O        1.04829116       0.90328624       0.76185091
H        0.29300985       1.45410445       0.08013725
3
Properties=species:S:1:pos:R:3 REF_energy="_JSON [[1.0, 1.0, 1.0]]" REF_dipoles="_JSON [[0.676826875450219, 0.009275935253508701, 1.3791234036342461], [0.07934048789035952, -0.8427412654933226, 0.5411466615126902], [0.9930692823336473, 0.07345723331962266, 0.3650499610184846]]" pbc="F F F"
H        1.88311142       1.74233379       1.15733783
O        1.60103649       1.77945877       1.38497229
H        1.15600810       0.91648861       0.07362454
3
Properties=species:S:1:pos:R:3 REF_energy="_JSON [[1.0, 1.0, 1.0]]" REF_dipoles="_JSON [[-2.0328305209454065, -0.11792700462134387, 0.03490320963276389], [1.55522491375844, 0.7121878504749377, 1.1340663591206164], [0.6751393777733548, -2.3380939797416778, -0.8417593719120663]]" pbc="F F F"
H        0.56296298       1.19436011       0.19411980
O        0.60283267       1.23335189       1.58317733
H        1.14398285       0.42131072       0.05896861
